Element Number	Equivalent (von-Mises) Stress (psi)
1	2.4131
2	2.4833
3	2.2231
4	2.1975
5	1.7634
6	1.9851
7	1.6175
8	1.8899
9	2.3068
10	2.383
11	1.8662
12	1.8573
13	2.1409
14	2.1344
15	2.1599
16	2.2541
17	1.7779
18	1.626
19	1.5351
20	1.6459
21	1.9145
22	1.8824
23	0.80799
24	0.90864
25	0.85471
26	1.066
27	1.0827
28	0.90122
29	0.94884
30	1.1043
31	1.1822
32	1.2489
33	1.3742
34	1.034
35	0.95784
36	1.0169
37	1.0342
38	1.2601
39	1.257
40	1.4261
41	2.6929
42	2.0081
43	1.323
44	1.5714
45	1.6899
46	1.5314
47	3.039
48	2.176
49	1.7906
50	1.4862
51	2.2631
52	3.1642
53	1.2024
54	1.4695
55	2.2144
56	1.8972
57	1.1553
58	1.3854
59	1.1075
60	2.
61	1.2008
62	1.3595
63	2.2984
64	3.1414
65	2.2981
66	2.9707
67	0.96209
68	0.98825
69	1.0499
70	1.0457
71	0.89028
72	0.96993
73	1.0311
74	0.89846
75	1.0009
76	0.78452
77	0.77398
78	0.70531
79	0.6481
80	0.86054
81	0.90991
82	0.88222
83	0.882
84	0.95402
85	1.0537
86	1.0015
87	0.76564
88	0.70829
89	0.83557
90	0.80126
91	1.0697
92	0.88655
93	1.0795
94	1.1028
95	1.3285
96	1.4523
97	1.2253
98	1.5195
99	1.1613
100	0.92232
101	0.94688
102	1.1626
103	0.92406
104	1.0492
105	1.0238
106	1.2821
107	1.2863
108	1.1205
109	4.6719
110	4.1353
111	3.9991
112	3.352
113	1.5122
114	1.4235
115	1.1973
116	1.0631
117	1.6908
118	1.7869
119	1.8857
120	1.7135
121	1.2183
122	1.3171
123	1.4057
124	1.0357
125	1.0549
126	1.4727
127	1.3151
128	1.9005
129	1.2724
130	1.592
131	1.5926
132	1.7793
133	1.9704
134	1.8732
135	1.2377
136	1.2206
137	1.9705
138	1.8142
139	1.4797
140	1.5651
141	1.5423
142	1.384
143	1.3786
144	1.4615
145	1.5208
146	1.6948
147	1.8088
148	1.7846
149	1.5545
150	1.584
151	1.6519
152	1.4798
153	1.4513
154	1.5112
155	1.5455
156	1.7569
157	1.6851
158	1.4233
159	1.6674
160	1.5479
161	1.402
162	1.3789
163	1.0486
164	1.6037
165	1.3104
166	1.0921
167	1.6703
168	1.6109
169	1.2759
170	1.0864
171	1.0367
172	1.2367
173	1.5654
174	1.2614
175	1.0047
176	1.3812
177	1.5294
178	1.525
179	1.472
180	1.4571
181	1.6262
182	1.4554
183	1.5509
184	1.5044
185	1.5904
186	1.7059
187	1.5677
188	1.7509
189	1.6067
190	1.4025
191	1.4417
192	1.6729
193	1.5984
194	1.6749
195	1.7455
196	1.6434
197	1.6732
198	1.5953
199	1.3148
200	1.2139
201	1.3587
202	1.4731
203	1.6641
204	1.2393
205	1.1499
206	1.2845
207	1.3845
208	1.1644
209	1.0407
210	1.7192
211	1.3926
212	1.2786
213	1.8667
214	1.8819
215	1.7135
216	1.7893
217	1.733
218	1.4694
219	1.7513
220	2.0089
221	1.119
222	1.0717
223	1.3525
224	1.6431
225	1.3936
226	1.4269
227	1.2589
228	1.9838
229	1.86
230	1.6967
231	1.0977
232	1.0101
233	1.6513
234	1.1229
235	1.4477
236	1.3609
237	1.3928
238	1.4253
239	1.3015
240	1.2502
241	1.2345
242	1.2249
243	1.5245
244	1.5863
245	1.2503
246	1.7991
247	1.8566
248	1.1506
249	1.3781
250	1.5664
251	1.237
252	1.4967
253	1.7319
254	1.8797
255	1.8584
256	2.0118
257	0.26948
258	0.19523
259	0.11599
260	0.12127
261	0.12243
262	0.10783
263	0.20157
264	6.4505e-002
265	5.8706e-002
266	6.9549e-002
267	0.15655
268	0.10913
269	0.11586
270	5.5499e-002
271	6.1236e-002
272	4.2622e-002
273	0.80157
274	0.88709
275	0.78696
276	0.95606
277	1.1148
278	0.83748
279	0.81944
280	0.87932
281	1.1619
282	1.3375
283	1.3457
284	1.2418
285	1.1652
286	0.88979
287	1.1165
288	1.2243
289	0.9804
290	1.0358
291	1.0212
292	1.1032
293	1.0276
294	0.92165
295	1.419
296	1.9474
297	2.2859
298	1.451
299	1.8678
300	1.5906
301	1.6033
302	1.5786
303	1.5086
304	2.442
305	1.573
306	2.0908
307	2.0026
308	2.4101
309	2.294
310	1.4056
311	1.907
312	1.9144
313	3.0099
314	2.2221
315	2.8479
316	2.1836
317	4.4696
318	4.4695
319	4.5185
320	4.299
321	4.8062
322	4.4461
323	4.6551
324	4.5396
325	4.6165
326	4.3869
327	4.462
328	4.2412
329	5.008
330	4.4614
331	5.3344
332	5.2269
333	4.6087
334	5.0293
335	4.6812
336	4.5604
337	4.8793
338	4.7991
339	4.508
340	5.0015
341	5.2268
342	4.5624
343	1.8266
344	2.1138
345	2.1417
346	2.7452
347	1.7506
348	1.9618
349	2.6849
350	1.2232
351	1.3245
352	1.4983
353	1.8054
354	1.1582
355	2.1428
356	1.7193
357	2.1101
358	2.1258
359	1.8796
360	1.8634
361	2.0696
362	2.2495
363	2.2861
364	1.6911
365	1.8971
366	1.8851
367	2.0036
368	2.0459
369	2.0669
370	1.5697
371	1.4865
372	1.4768
373	1.8687
374	2.2278
375	1.2646
376	1.7127
377	2.0546
378	1.7095
379	1.0412
380	1.1423
381	1.0634
382	1.1761
383	1.7471
384	0.62063
385	0.89637
386	0.94901
387	1.2206
388	0.97397
389	1.1108
390	1.2759
391	0.73849
392	0.70828
393	1.1694
394	0.86362
395	0.71295
396	0.83282
397	0.63237
398	0.86286
399	1.0818
400	1.2685
401	0.92135
402	0.89965
403	1.1633
404	0.55749
405	0.65098
406	0.58689
407	0.79522
408	0.78829
409	0.75551
410	0.77461
411	0.76295
412	0.77755
413	0.8044
414	0.79633
415	0.92613
416	0.92218
417	0.94712
418	0.78524
419	0.8011
420	0.89971
421	1.002
422	0.95744
423	0.85215
424	0.95599
425	0.98246
426	0.77012
427	0.81183
428	0.8829
429	1.6803
430	1.5844
431	1.6769
432	1.4015
433	1.3616
434	1.5831
435	1.2986
436	1.1867
437	1.6752
438	1.1513
439	0.93543
440	1.5356
441	1.2482
442	1.3483
443	1.0491
444	0.96961
445	0.82468
446	0.82643
447	1.157
448	2.0237
449	1.7863
450	1.8143
451	2.1416
452	2.4981
453	2.1338
454	1.6615
455	1.6293
456	2.4337
457	1.8611
458	1.7582
459	1.935
460	2.3029
461	1.8201
462	2.1529
463	1.5683
464	1.5414
465	2.1301
466	2.3131
467	1.6759
468	1.6992
469	1.7572
470	1.6347
471	1.6747
472	1.6688
473	1.5891
474	1.8868
475	1.9091
476	1.9629
477	0.43676
478	0.40315
479	0.40415
480	0.36
481	0.47968
482	0.44629
483	0.31139
484	0.29291
485	0.41076
486	0.54459
487	0.60485
488	0.46302
489	0.49945
490	0.38235
491	0.47268
492	0.32712
493	0.49983
494	0.64814
495	0.57207
496	0.45953
497	1.7962
498	1.8058
499	1.7414
500	1.5237
501	1.35
502	1.2941
503	1.4185
504	1.3432
505	1.1665
506	1.1255
507	1.2036
508	1.3374
509	1.2903
510	1.3749
511	1.4927
512	2.0502
513	2.4551
514	1.9383
515	2.2545
516	1.9153
517	2.0646
518	1.6732
519	1.5972
520	1.8513
521	1.4953
522	1.4994
523	2.0044
524	1.7217
525	1.575
526	1.5554
527	2.0714
528	2.0671
529	1.6122
530	1.8891
531	1.4566
532	2.15
533	1.8566
534	2.0968
535	1.5727
536	2.0391
537	2.2855
538	1.8956
539	0.42661
540	0.45965
541	0.66473
542	0.54062
543	0.55376
544	0.62725
545	0.36813
546	0.34217
547	0.48468
548	0.58201
549	0.45465
550	0.53647
551	0.53497
552	0.61539
553	0.45062
554	0.56154
555	0.33707
556	0.39479
557	0.30449
558	3.1435
559	3.0266
560	2.9914
561	3.2378
562	1.9721
563	1.8702
564	2.4421
565	1.9771
566	1.7771
567	2.5222
568	2.3228
569	2.3369
570	2.568
571	2.4534
572	2.6911
573	2.58
574	2.8956
575	2.9864
576	2.4724
577	2.7824
578	2.3959
579	2.1202
580	6.3995
581	6.8344
582	6.5165
583	6.9327
584	7.0686
585	7.7978
586	7.4186
587	7.1129
588	7.0585
589	6.5098
590	6.9246
591	6.6133
592	6.604
593	7.5257
594	7.3549
595	7.7604
596	7.3616
597	7.9441
598	7.7439
599	7.343
600	1.5257
601	1.7239
602	1.7572
603	2.0912
604	1.7426
605	2.3863
606	1.529
607	1.5711
608	1.0565
609	1.1077
610	1.078
611	1.3308
612	1.2309
613	1.7599
614	1.0176
615	1.3062
616	7.0555
617	6.7518
618	6.4395
619	6.7515
620	7.1434
621	6.9163
622	6.612
623	6.9167
624	6.6131
625	6.0822
626	5.9919
627	5.9034
628	6.1921
629	6.6921
630	5.7731
631	6.0844
632	2.7961
633	2.3134
634	2.2111
635	2.2215
636	3.2083
637	2.9527
638	3.2122
639	2.9542
640	2.323
641	2.5009
642	2.2908
643	2.3171
644	2.3047
645	3.0463
646	2.7134
647	2.7138
648	2.5176
649	2.7181
650	1.0609
651	0.9049
652	0.96618
653	1.1936
654	1.1984
655	0.94045
656	1.2888
657	0.86884
658	1.0218
659	1.3102
660	1.2988
661	1.349
662	1.4221
663	0.99515
664	1.359
665	1.5069
666	1.447
667	1.2443
668	1.8395
669	1.8659
670	2.0106
671	1.785
672	2.1235
673	2.4896
674	1.8012
675	2.0798
676	2.4138
677	2.8738
678	1.3465
679	1.3719
680	1.9095
681	1.8935
682	2.7139
683	1.3037
684	1.6585
685	2.0067
686	0.45967
687	0.48646
688	0.45174
689	0.4849
690	0.51287
691	0.51208
692	0.3783
693	0.34755
694	0.5006
695	0.49321
696	0.41043
697	0.3241
698	1.5877
699	1.6201
700	1.7905
701	1.8482
702	1.3939
703	1.4887
704	1.7729
705	1.6401
706	1.7969
707	1.5331
708	1.6198
709	1.4933
710	1.5015
711	1.6083
712	1.7779
713	1.8116
714	4.6114
715	4.7869
716	4.5303
717	4.3669
718	5.8482
719	6.9031
720	6.513
721	6.1085
722	5.4512
723	5.2445
724	3.8519
725	4.2349
726	6.1513
727	5.6599
728	7.0168
729	5.0306
730	4.5442
731	4.5441
732	5.8153
733	6.309
734	7.0587
735	5.3873
736	2.7459
737	3.66
738	4.1451
739	3.2171
740	3.7755
741	3.375
742	4.0692
743	2.5878
744	4.4561
745	2.7617
746	2.9466
747	3.5635
748	4.4687
749	4.338
750	0.23224
751	0.3419
752	0.47738
753	0.33548
754	0.17017
755	0.1789
756	0.33814
757	0.21092
758	3.3879e-002
759	4.4201e-002
760	0.19433
761	4.7226e-002
762	0.13348
763	1.9668e-002
764	2.3028e-002
765	10.857
766	11.051
767	11.223
768	11.841
769	11.467
770	11.237
771	11.64
772	12.557
773	12.726
774	11.458
775	11.856
776	12.043
777	12.041
778	12.74
779	13.065
780	12.622
781	13.2
782	12.759
783	12.605
784	12.753
785	12.946
786	12.835
787	13.392
788	13.06
789	12.946
790	13.961
791	13.802
792	14.359
793	14.897
794	14.302
795	13.769
796	13.963
797	13.803
798	15.101
799	14.564
800	14.446
801	14.528
802	14.964
803	14.447
804	14.893
805	0.23455
806	0.22481
807	0.49149
808	0.48025
809	0.33841
810	0.46598
811	0.48261
812	0.36941
813	0.42608
814	0.43664
815	0.36006
816	0.31497
817	0.2464
818	1.4881
819	1.5662
820	1.2706
821	1.3143
822	1.7899
823	1.7272
824	1.265
825	1.1158
826	0.98468
827	1.2581
828	1.7361
829	1.6808
830	1.2278
831	1.2499
832	1.4482
833	1.1508
834	1.4434
835	13.411
836	13.556
837	13.707
838	13.557
839	14.282
840	15.144
841	14.854
842	15.141
843	14.852
844	14.73
845	15.517
846	15.574
847	16.367
848	15.999
849	15.787
850	16.696
851	15.905
852	15.788
853	16.488
854	16.559
855	0.67888
856	0.82253
857	0.72363
858	0.8675
859	0.85419
860	0.75921
861	0.97372
862	1.0563
863	0.86853
864	0.94923
865	1.0535
866	1.0047
867	13.241
868	13.112
869	14.966
870	15.632
871	13.375
872	13.241
873	13.835
874	14.908
875	14.248
876	15.897
877	15.233
878	14.55
879	14.327
880	15.115
881	15.76
882	14.551
883	14.325
884	15.689
885	15.117
886	15.262
887	0.8165
888	0.80082
889	0.95383
890	1.0118
891	1.1341
892	1.1812
893	1.0551
894	1.0281
895	0.89013
896	1.0497
897	1.12
898	0.89576
899	1.0887
900	1.1677
901	0.93047
902	0.8934
903	0.97898
904	1.0909
905	5.929
906	6.0827
907	5.9304
908	5.7666
909	5.9131
910	5.7735
911	6.0832
912	6.408
913	6.5406
914	5.917
915	6.0634
916	6.3778
917	6.696
918	6.5501
919	6.5447
920	6.6825
921	6.0883
922	6.3997
923	6.5528
924	6.3835
925	0.3159
926	0.23944
927	0.23742
928	0.40831
929	0.18779
930	0.13886
931	0.11659
932	0.32055
933	0.15537
934	0.44047
935	0.20848
936	0.15849
937	0.20468
938	0.12604
939	0.16276
940	0.30581
941	0.14264
942	0.38306
943	0.21885
944	0.16682
945	0.33466
946	0.20342
947	3.6989
948	4.2312
949	3.6083
950	3.9722
951	4.5481
952	6.1654
953	5.7275
954	4.0193
955	4.3041
956	5.3067
957	4.9595
958	3.9178
959	4.3657
960	5.0534
961	5.2019
962	6.4926
963	5.9176
964	4.5887
965	4.5991
966	5.4449
967	5.9654
968	0.83262
969	0.51993
970	0.52388
971	0.76689
972	0.67659
973	0.50278
974	0.58511
975	0.61064
976	0.62285
977	0.64492
978	0.67422
979	0.58109
980	0.70013
981	0.68358
982	0.80113
983	0.79679
984	0.7205
985	0.83774
986	0.84356
987	0.79437
988	0.77344
989	0.886
990	0.91407
991	0.62045
992	0.55229
993	0.71912
994	0.82167
995	0.89641
996	0.83102
997	0.73039
998	0.55138
999	0.59716
1000	0.67776
1001	0.80527
1002	0.97449
1003	0.95955
1004	0.92679
1005	0.97583
1006	0.89061
1007	12.961
1008	13.059
1009	9.2361
1010	9.0581
1011	9.2345
1012	9.4114
1013	10.441
1014	11.917
1015	11.384
1016	14.777
1017	12.957
1018	11.286
1019	11.286
1020	13.395
1021	11.918
1022	14.776
1023	13.061
1024	14.495
1025	11.594
1026	11.7
1027	11.885
1028	11.913
1029	11.957
1030	11.931
1031	11.609
1032	11.581
1033	11.727
1034	11.692
1035	11.703
1036	11.766
1037	11.775
1038	11.767
1039	11.847
1040	11.869
1041	11.6
1042	11.773
1043	11.732
1044	11.706
1045	1.5202
1046	1.585
1047	1.4243
1048	1.3555
1049	1.3056
1050	1.421
1051	1.3474
1052	1.2177
1053	1.0757
1054	1.0827
1055	1.1016
1056	1.2444
1057	1.3735
1058	1.0202
1059	0.92558
1060	0.95051
1061	0.87306
1062	0.94123
1063	1.1423
1064	2.864
1065	3.5566
1066	1.5743
1067	1.6205
1068	3.6604
1069	2.8449
1070	2.2703
1071	1.8025
1072	1.6868
1073	1.6879
1074	2.9778
1075	4.0722
1076	2.0387
1077	1.9982
1078	1.6347
1079	1.6487
1080	2.781
1081	3.6361
1082	3.4599
1083	4.2762
1084	3.4144
1085	4.0182
1086	1.7431
1087	2.4924
1088	2.8172
1089	1.9292
1090	1.993
1091	5.8331
1092	6.136
1093	6.1443
1094	6.7908
1095	4.7635
1096	4.6325
1097	4.8541
1098	4.7232
1099	6.1771
1100	6.1238
1101	6.6021
1102	6.4466
1103	4.3557
1104	4.5243
1105	4.1012
1106	4.3266
1107	3.4083
1108	3.1547
1109	3.6175
1110	2.7159
1111	2.4702
1112	2.6513
1113	2.4299
1114	2.8802
1115	1.9857
1116	2.576
1117	2.3224
1118	2.8849
1119	2.2767
1120	1.9815
1121	2.8557
1122	3.0437
1123	3.0721
1124	2.8916
1125	2.8817
1126	3.2767
1127	2.6097
1128	3.3734
1129	2.2385
1130	3.6729
1131	3.1442
1132	3.0925
1133	2.768
1134	3.4447
1135	2.3667
1136	2.5341
1137	3.6347
1138	3.3296
1139	2.9174
1140	2.9201
1141	3.7605
1142	3.7484
1143	3.9657
1144	2.6341
1145	2.568
1146	2.5942
1147	3.6882
1148	3.7289
1149	2.6658
1150	2.7247
1151	2.2993
1152	2.2039
1153	1.6797
1154	1.8106
1155	1.8674
1156	2.0012
1157	2.3238
1158	2.5518
1159	2.4944
1160	2.0088
1161	2.1297
1162	1.6687
1163	2.0518
1164	1.8314
1165	2.4141
1166	2.3532
1167	2.4707
1168	1.9057
1169	1.6907
1170	2.0732
1171	2.19
1172	1.8084
1173	1.9017
1174	1.7848
1175	1.6682
1176	1.7505
1177	1.8631
1178	1.8774
1179	1.6243
1180	1.4033
1181	1.5859
1182	1.1457
1183	1.5591
1184	1.2536
1185	1.427
1186	1.7069
1187	1.6561
1188	1.6654
1189	1.5431
1190	1.659
1191	1.3016
1192	1.5251
1193	1.2049
1194	1.1252
1195	1.413
1196	1.4179
1197	1.5913
1198	6.3584
1199	6.5073
1200	6.1324
1201	6.9962
1202	4.395
1203	4.5464
1204	6.3544
1205	5.6137
1206	5.7983
1207	5.8379
1208	5.0022
1209	5.0671
1210	7.0519
1211	4.4049
1212	3.9332
1213	4.3423
1214	0.59123
1215	0.47306
1216	0.49797
1217	0.51393
1218	0.37623
1219	0.39679
1220	0.51704
1221	0.46471
1222	0.6271
1223	0.66632
1224	0.59552
1225	3.4496
1226	3.4896
1227	3.7361
1228	3.6832
1229	3.6262
1230	3.3714
1231	4.0347
1232	4.4612
1233	4.7069
1234	1.1181
1235	1.014
1236	1.1448
1237	1.1309
1238	1.0418
1239	0.86009
1240	0.95918
1241	0.90853
1242	0.9787
1243	0.87119
1244	0.83915
1245	0.87297
1246	0.80588
1247	0.75671
1248	0.79716
1249	0.82144
1250	0.78784
1251	0.75541
1252	0.79928
1253	0.79945
1254	1.2402
1255	1.4056
1256	1.182
1257	1.363
1258	1.3876
1259	1.5017
1260	1.2442
1261	1.1919
1262	1.4836
1263	1.591
1264	1.5236
1265	1.5744
1266	1.7557
1267	1.7446
1268	1.5742
1269	1.6032
1270	1.2513
1271	1.3498
1272	1.5553
1273	1.7482
1274	1.5887
1275	0.95836
1276	1.5234
1277	1.535
1278	1.2473
1279	1.3114
1280	1.2196
1281	1.5942
1282	0.75319
1283	1.0554
1284	0.8344
1285	1.0228
1286	1.0319
1287	1.0547
1288	1.027
1289	1.3064
1290	1.6842
1291	1.6625
1292	1.7674
1293	1.7883
1294	1.7681
1295	1.7389
1296	1.8086
1297	2.0862
1298	1.7115
1299	1.8819
1300	1.7484
1301	1.767
1302	2.1509
1303	5.8199
1304	4.7702
1305	4.9663
1306	6.842
1307	5.6236
1308	4.2434
1309	7.16
1310	2.7258
1311	2.7396
1312	2.831
1313	2.7222
1314	2.6517
1315	2.7478
1316	2.9358
1317	2.8128
1318	2.5406
1319	2.5739
1320	2.6637
1321	2.7575
1322	8.4123
1323	9.0081
1324	8.4944
1325	8.9764
1326	8.2411
1327	8.5031
1328	9.1613
1329	8.4109
1330	9.0663
1331	9.5419
1332	1.5596
1333	1.6353
1334	1.7246
1335	2.093
1336	1.8965
1337	2.1027
1338	1.8832
1339	3.2981
1340	2.7857
1341	3.14
1342	4.2513
1343	2.9542
1344	2.6974
1345	2.1835
1346	2.6396
1347	2.9879
1348	4.5618
1349	10.293
1350	9.2471
1351	10.953
1352	9.382
1353	11.023
1354	9.082
1355	8.4913
1356	12.583
1357	10.92
1358	10.294
1359	9.6754
1360	8.995
1361	10.532
1362	7.0295
1363	6.8
1364	6.7809
1365	7.0289
1366	5.0646
1367	5.2781
1368	6.7928
1369	6.5719
1370	5.2954
1371	5.5042
1372	6.7877
1373	6.5496
1374	5.2947
1375	5.5027
1376	6.5408
1377	6.0906
1378	5.8728
1379	5.5092
1380	5.9459
1381	6.1384
1382	6.5618
1383	6.5724
1384	5.8834
1385	6.1489
1386	6.0966
1387	5.9134
1388	6.1165
1389	5.9234
1390	1.57
1391	1.7627
1392	1.8716
1393	1.6483
1394	1.2147
1395	1.5064
1396	1.3276
1397	1.8949
1398	1.8378
1399	1.6111
1400	1.5572
1401	1.5537
1402	1.9147
1403	1.8984
1404	0.24673
1405	0.37237
1406	0.76789
1407	0.61304
1408	0.86834
1409	0.98878
1410	0.40191
1411	0.33884
1412	0.37181
1413	0.53025
1414	0.24302
1415	1.0467
1416	0.97333
1417	0.75794
1418	0.46067
1419	0.65309
1420	0.66467
1421	0.79663
1422	0.76884
1423	0.71451
1424	0.5925
1425	0.358
1426	0.91754
1427	0.47832
1428	0.46966
1429	3.6368
1430	5.2614
1431	6.9799
1432	4.076
1433	4.2684
1434	5.3182
1435	3.7268
1436	5.4146
1437	3.6257
1438	5.3634
1439	7.0859
1440	5.5226
1441	4.1741
1442	7.162
1443	7.8093
1444	7.4641
1445	7.1602
1446	7.1321
1447	6.9406
1448	7.9515
1449	7.8094
1450	7.4663
1451	6.9948
1452	7.586
1453	7.4145
1454	7.4053
1455	7.8023
1456	2.3199
1457	2.335
1458	2.8346
1459	2.0892
1460	2.0685
1461	3.1029
1462	3.4937
1463	2.1164
1464	2.7338
1465	3.2071
1466	3.5431
1467	3.3154
1468	3.6785
1469	3.9245
1470	2.1128
1471	1.4967
1472	1.7039
1473	3.0463
1474	2.3859
1475	3.4072
1476	3.248
1477	2.5693
1478	2.7125
1479	3.0318
1480	2.2849
1481	2.3715
1482	3.2357
1483	2.3355
1484	3.6657
1485	3.5137
1486	3.4383
1487	5.0184
1488	6.5792
1489	3.9368
1490	6.5774
1491	4.9297
1492	5.8963
1493	4.8297
1494	4.1644
1495	3.1301
1496	7.3643
1497	7.042
1498	3.2554
1499	6.4815
1500	4.5927
1501	5.323
1502	3.6098
1503	5.4216
1504	6.1543
1505	0.66172
1506	0.87507
1507	0.58739
1508	0.55252
1509	0.56705
1510	0.64144
1511	0.75865
1512	0.9394
1513	0.69862
1514	0.47539
1515	0.46145
1516	0.46474
1517	0.52547
1518	0.94989
1519	0.47303
1520	0.44145
1521	0.71447
1522	0.56002
1523	0.91296
1524	0.89603
1525	0.89442
1526	0.84361
1527	0.95557
1528	1.0003
1529	1.0848
1530	1.0266
1531	0.83207
1532	1.0446
1533	1.1522
1534	1.0865
1535	0.79328
1536	0.79749
1537	0.75018
1538	1.1365
1539	0.93723
1540	0.91611
1541	1.0635
1542	0.99798
1543	0.98451
1544	0.97633
1545	0.97123
1546	1.0687
1547	1.0779
1548	1.1361
1549	1.0864
1550	1.1999
1551	1.3716
1552	1.1877
1553	1.3271
1554	1.2085
1555	1.3702
1556	1.3165
1557	1.4085
1558	1.3257
1559	1.4161
1560	1.5375
1561	1.4216
1562	3.8211
1563	4.1939
1564	3.183
1565	2.5462
1566	3.3496
1567	3.7406
1568	2.6843
1569	4.2781
1570	3.2713
1571	4.8418
1572	6.2094
1573	5.7801
1574	7.3493
1575	6.1843
1576	6.8352
1577	10.017
1578	7.3326
1579	8.9838
1580	9.3305
1581	9.1915
1582	5.0773
1583	0.56345
1584	0.74295
1585	1.234
1586	0.91172
1587	0.59154
1588	0.44608
1589	0.53244
1590	0.53775
1591	0.71026
1592	1.3671
1593	0.97205
1594	1.7904
1595	1.7373
1596	1.278
1597	1.4659
1598	0.69593
1599	0.63021
1600	0.92341
1601	1.5864
1602	1.0613
1603	11.421
1604	11.4
1605	11.094
1606	10.973
1607	11.149
1608	11.252
1609	11.155
1610	11.428
1611	11.454
1612	11.008
1613	11.18
1614	10.901
1615	11.25
1616	11.361
1617	11.001
1618	11.17
1619	10.844
1620	11.093
1621	2.6487
1622	2.8757
1623	2.706
1624	2.7342
1625	2.5565
1626	2.2174
1627	2.3586
1628	2.1806
1629	1.7816
1630	2.037
1631	1.7533
1632	3.6778
1633	2.6465
1634	3.9088
1635	4.3828
1636	2.8872
1637	4.4473
1638	4.0179
1639	4.8237
1640	5.5097
1641	3.0264
1642	2.8158
1643	3.8602
1644	2.6993
1645	4.1989
1646	5.9337
1647	4.9544
1648	6.1607
1649	5.5124
1650	5.0714
1651	4.7806
1652	5.8529
1653	2.351
1654	2.3306
1655	2.5785
1656	2.162
1657	2.2988
1658	2.5906
1659	2.1823
1660	2.0219
1661	1.3612
1662	1.4623
1663	1.3662
1664	1.6549
1665	13.602
1666	13.234
1667	13.288
1668	13.614
1669	12.863
1670	13.231
1671	12.304
1672	12.363
1673	12.883
1674	12.57
1675	13.19
1676	12.886
1677	13.515
1678	13.288
1679	12.364
1680	12.431
1681	12.861
1682	12.864
1683	6.4679
1684	6.393
1685	6.5553
1686	6.5068
1687	6.2323
1688	6.044
1689	5.9454
1690	6.3038
1691	6.2065
1692	12.26
1693	12.335
1694	12.502
1695	12.414
1696	12.336
1697	12.808
1698	13.086
1699	13.144
1700	13.427
1701	12.783
1702	12.753
1703	13.106
1704	13.506
1705	13.224
1706	12.78
1707	12.753
1708	13.369
1709	13.058
1710	13.107
1711	13.298
1712	2.2961
1713	2.3104
1714	2.5497
1715	2.4476
1716	2.4174
1717	1.9055
1718	1.9797
1719	2.1553
1720	2.4097
1721	2.6639
1722	2.5127
1723	2.433
1724	2.3052
1725	2.6343
1726	2.4978
1727	2.533
1728	2.6104
1729	2.5324
1730	2.6927
1731	0.78108
1732	0.76259
1733	0.73943
1734	0.70612
1735	0.81244
1736	0.75931
1737	0.80042
1738	0.85255
1739	0.782
1740	0.77225
1741	0.80899
1742	0.82892
1743	0.90734
1744	0.9645
1745	0.93128
1746	0.84216
1747	1.0072
1748	0.95552
1749	0.97602
1750	4.4875
1751	5.1983
1752	4.6757
1753	4.154
1754	4.8568
1755	6.089
1756	2.9222
1757	3.0443
1758	5.7925
1759	4.5907
1760	5.851
1761	2.8832
1762	3.0358
1763	4.9047
1764	6.1722
1765	5.7754
1766	6.574
1767	4.5086
1768	3.8858
1769	0.32567
1770	0.36052
1771	0.42924
1772	0.43759
1773	0.44872
1774	0.36446
1775	0.41736
1776	0.37396
1777	0.38439
1778	0.45766
1779	0.31546
1780	0.31154
1781	0.46585
1782	0.49241
1783	0.45479
1784	0.51118
1785	0.54734
1786	0.7065
1787	0.69451
1788	0.60461
1789	0.77446
1790	0.75564
1791	0.58228
1792	0.51381
1793	0.69792
1794	5.0816e-002
1795	0.15773
1796	0.21693
1797	0.16371
1798	0.25019
1799	0.14546
1800	2.6886e-002
1801	5.4687e-002
1802	0.16575
1803	0.11571
1804	4.8648e-002
1805	2.5386e-002
1806	5.4095e-002
1807	1.7098e-002
1808	9.3752e-002
1809	2.7012e-002
1810	0.84152
1811	1.0231
1812	0.83234
1813	1.0125
1814	1.5166
1815	1.4209
1816	1.1796
1817	1.2159
1818	0.94869
1819	0.88661
1820	0.82799
1821	1.0847
1822	0.9652
1823	1.2629
1824	1.348
1825	1.3178
1826	1.3303
1827	1.3687
1828	1.0118
1829	1.244
1830	1.1094
1831	1.147
1832	2.4075
1833	2.1576
1834	2.2293
1835	2.0963
1836	2.8806
1837	3.6661
1838	3.7618
1839	3.9111
1840	4.415
1841	3.4445
1842	4.31
1843	2.6319
1844	2.687
1845	3.0183
1846	3.5915
1847	3.0322
1848	3.3229
1849	3.845
1850	4.5035
1851	3.5049
1852	4.3535
1853	2.9232
1854	5.9261
1855	6.4029
1856	6.4955
1857	7.2077
1858	5.8965
1859	4.9994
1860	4.7237
1861	5.6443
1862	5.853
1863	5.7083
1864	7.1974
1865	5.224
1866	6.4537
1867	6.9623
1868	4.5604
1869	4.7774
1870	6.1117
1871	5.0574
1872	1.0993
1873	1.1623
1874	1.0085
1875	1.0621
1876	1.1191
1877	1.1859
1878	1.1773
1879	1.0179
1880	0.91243
1881	0.91791
1882	1.0318
1883	1.0754
1884	1.1697
1885	1.0886
1886	0.99531
1887	1.0797
1888	0.20806
1889	0.18383
1890	0.28032
1891	0.34208
1892	0.20195
1893	0.17816
1894	0.36128
1895	0.43074
1896	0.2599
1897	0.25563
1898	0.27913
1899	0.35569
1900	0.5913
1901	0.52467
1902	0.44841
1903	0.50266
1904	0.62027
1905	0.53584
1906	0.35324
1907	0.40511
1908	0.50901
1909	0.33779
1910	1.7854
1911	2.0884
1912	1.443
1913	1.5763
1914	2.0552
1915	1.824
1916	1.2961
1917	1.2449
1918	1.8171
1919	2.1167
1920	1.3359
1921	1.4086
1922	2.1528
1923	1.8668
1924	2.435
1925	2.4196
1926	2.6839
1927	2.5768
1928	1.633
1929	2.172
1930	2.0327
1931	2.0018
1932	1.8027
1933	0.52638
1934	0.38041
1935	0.39881
1936	0.2312
1937	0.6509
1938	0.54622
1939	0.71632
1940	0.71839
1941	0.5208
1942	0.58491
1943	0.49717
1944	0.31522
1945	0.99976
1946	1.0052
1947	0.89977
1948	0.94977
1949	1.2191
1950	1.1573
1951	1.0588
1952	1.0449
1953	0.84932
1954	1.5599
1955	0.90925
1956	1.451
1957	0.9881
1958	0.9068
1959	1.0468
1960	1.3827
1961	1.2209
1962	1.4965
1963	1.5731
1964	0.93285
1965	0.89776
1966	0.97058
1967	0.89349
1968	0.6644
1969	0.79868
1970	0.83185
1971	0.85113
1972	0.92441
1973	0.92615
1974	0.90351
1975	0.85309
1976	0.69055
1977	0.72764
1978	0.68161
1979	0.68318
1980	0.75274
1981	0.80146
1982	0.74059
1983	0.76259
1984	0.63469
1985	0.6657
1986	6.2735
1987	5.8416
1988	6.4964
1989	5.2153
1990	5.8032
1991	4.8637
1992	4.4279
1993	6.0216
1994	7.3141
1995	4.7103
1996	5.4688
1997	5.2513
1998	4.8998
1999	5.09
2000	5.9116
2001	7.0304
2002	5.5934
2003	10.828
2004	4.3634
2005	5.2668
2006	1.7687
2007	1.6087
2008	1.3861
2009	1.5275
2010	1.7637
2011	2.2502
2012	2.0645
2013	2.5907
2014	2.4424
2015	2.6325
2016	1.6398
2017	1.9785
2018	2.1978
2019	2.1023
2020	2.2645
2021	2.0085
2022	2.0995
2023	1.7174
2024	1.7697
2025	1.5386
2026	1.6941
2027	1.5524
2028	1.5547
2029	3.1185
2030	1.9917
2031	3.7471
2032	5.3223
2033	3.1862
2034	4.9288
2035	2.5275
2036	4.2327
2037	2.6859
2038	3.5687
2039	4.515
2040	4.4087
2041	1.7872
2042	1.8259
2043	1.6684
2044	1.8358
2045	1.7597
2046	1.714
2047	1.6186
2048	1.9463
2049	1.9434
2050	1.6614
2051	1.6119
2052	1.7504
2053	1.6626
2054	1.7179
2055	1.7192
2056	1.8259
2057	1.826
2058	1.8862
2059	1.7225
2060	1.8077
2061	12.334
2062	12.26
2063	12.503
2064	12.414
2065	12.336
2066	12.809
2067	13.086
2068	13.427
2069	13.145
2070	12.781
2071	12.753
2072	13.105
2073	13.226
2074	13.507
2075	12.784
2076	12.754
2077	13.369
2078	13.059
2079	13.11
2080	13.299
2081	13.393
2082	12.836
2083	12.947
2084	13.961
2085	13.804
2086	13.964
2087	13.061
2088	12.945
2089	14.529
2090	13.803
2091	14.301
2092	13.769
2093	14.897
2094	14.36
2095	14.894
2096	14.449
2097	14.446
2098	14.566
2099	15.102
2100	14.964
2101	11.973
2102	12.029
2103	12.537
2104	12.692
2105	12.709
2106	12.555
2107	12.058
2108	12.091
2109	12.03
2110	12.191
2111	12.227
2112	12.501
2113	12.438
2114	12.478
2115	12.328
2116	12.572
2117	12.194
2118	12.228
2119	12.323
2120	12.436
2121	1.6375
2122	1.5732
2123	1.2656
2124	1.1699
2125	1.4707
2126	1.6361
2127	1.9677
2128	1.7006
2129	1.53
2130	1.4695
2131	1.3499
2132	1.156
2133	1.3256
2134	1.5038
2135	1.6343
2136	1.4603
2137	1.6558
2138	1.6492
2139	1.7947
2140	1.8375
2141	1.8391
2142	1.9661
2143	1.1523
2144	1.4897
2145	1.2213
2146	1.4785
2147	1.5897
2148	1.5631
2149	1.3448
2150	1.1443
2151	1.238
2152	1.1626
2153	1.1363
2154	1.0797
2155	0.94485
2156	1.0599
2157	0.87636
2158	0.97537
2159	1.0753
2160	1.1164
2161	1.187
2162	1.0742
2163	0.84182
2164	0.96727
2165	0.97521
2166	1.0929
2167	0.86822
2168	1.1352
2169	0.87147
2170	0.78341
2171	0.91585
2172	0.80953
2173	5.8007
2174	5.6401
2175	6.1402
2176	6.7625
2177	7.0934
2178	6.539
2179	7.5834
2180	6.857
2181	6.7303
2182	6.558
2183	7.5196
2184	8.0492
2185	7.8831
2186	7.4237
2187	0.37712
2188	0.45041
2189	0.23411
2190	0.21418
2191	0.37383
2192	0.33887
2193	0.30593
2194	0.24058
2195	1.1925
2196	0.96827
2197	0.89789
2198	0.82262
2199	0.8157
2200	0.78797
2201	0.87407
2202	1.02
2203	0.74252
2204	0.70703
2205	0.93038
2206	1.1196
2207	1.2662
2208	1.3098
2209	1.2374
2210	1.2392
2211	0.72932
2212	1.0954
2213	1.0807
2214	0.92846
2215	0.9886
2216	10.592
2217	12.061
2218	14.974
2219	13.216
2220	13.261
2221	11.473
2222	15.455
2223	15.456
2224	14.293
2225	12.508
2226	11.439
2227	12.064
2228	13.54
2229	14.693
2230	14.273
2231	12.487
2232	10.887
2233	14.973
2234	11.428
2235	13.212
2236	3.0249
2237	3.3032
2238	3.3994
2239	4.0707
2240	3.9629
2241	3.0114
2242	3.2967
2243	3.3541
2244	4.0054
2245	3.6217
2246	3.0987
2247	3.4071
2248	3.9583
2249	0.73088
2250	0.62191
2251	0.69152
2252	0.80295
2253	0.80788
2254	0.97211
2255	0.85931
2256	0.98263
2257	0.90524
2258	0.9069
2259	0.81127
2260	0.78792
2261	0.8038
2262	0.79298
2263	0.81627
2264	0.82522
2265	2.1774
2266	2.4641
2267	2.2607
2268	1.88
2269	2.4074
2270	2.9825
2271	1.6318
2272	2.3162
2273	1.3044
2274	1.8764
2275	2.2348
2276	1.8425
2277	2.4168
2278	1.9252
2279	1.555
2280	2.9619
2281	2.4411
2282	3.1121
2283	1.3097
2284	2.2212
2285	5.7033
2286	4.8471
2287	6.3036
2288	6.0787
2289	5.5342
2290	5.4772
2291	6.9158
2292	6.5712
2293	6.9816
2294	6.4957
2295	8.0537
2296	8.0516
2297	9.3535
2298	8.6785
2299	10.384
2300	10.936
2301	9.8238
2302	1.0145
2303	0.85958
2304	0.78055
2305	0.76319
2306	0.78348
2307	0.94505
2308	0.9327
2309	0.79301
2310	0.70726
2311	1.0137
2312	0.65775
2313	0.69994
2314	0.86215
2315	0.79586
2316	0.66976
2317	0.78339
2318	6.08
2319	6.5416
2320	6.7861
2321	7.7398
2322	5.1721
2323	6.8949
2324	5.5828
2325	5.0281
2326	5.7571
2327	7.1282
2328	7.3962
2329	6.6475
2330	5.8239
2331	7.7479
2332	4.9803
2333	6.8615
2334	4.8125
2335	9.011
2336	8.9066
2337	9.5355
2338	8.773
2339	8.9154
2340	9.7882
2341	9.3544
2342	9.2247
2343	9.1817
2344	8.5036
2345	8.4924
2346	9.8293
2347	9.3779
2348	10.165
2349	9.6199
2350	8.5267
2351	9.2004
2352	2.3995
2353	2.8951
2354	2.9917
2355	3.4894
2356	2.6207
2357	1.8397
2358	2.0685
2359	2.3775
2360	2.6663
2361	3.3918
2362	2.1266
2363	1.8379
2364	1.7868
2365	3.8425
2366	2.9568
2367	0.52073
2368	0.56134
2369	0.52607
2370	0.57188
2371	0.45113
2372	0.43046
2373	0.55603
2374	0.54606
2375	0.63832
2376	0.51583
2377	0.61149
2378	0.43044
2379	0.38193
2380	0.44651
2381	0.31681
2382	0.62062
2383	0.56767
2384	0.4364
2385	0.58006
2386	13.251
2387	13.123
2388	15.235
2389	15.899
2390	15.633
2391	14.968
2392	13.253
2393	13.384
2394	13.836
2395	14.55
2396	14.329
2397	15.119
2398	15.691
2399	15.762
2400	14.25
2401	14.909
2402	14.552
2403	14.327
2404	15.263
2405	15.117
2406	0.59718
2407	0.55679
2408	0.43059
2409	0.71744
2410	0.81621
2411	0.45276
2412	0.51885
2413	0.67585
2414	0.83049
2415	0.65348
2416	0.57048
2417	2.0765
2418	1.8452
2419	1.9547
2420	2.2264
2421	1.359
2422	1.3702
2423	1.7569
2424	1.9993
2425	1.5685
2426	1.258
2427	1.2745
2428	1.7894
2429	1.5689
2430	1.1983
2431	1.3361
2432	1.2021
2433	1.2984
2434	1.1905
2435	1.1177
2436	1.0161
2437	1.292
2438	1.0107
2439	0.98516
2440	1.2467
2441	1.0579
2442	0.98339
2443	15.217
2444	16.132
2445	16.189
2446	17.11
2447	13.864
2448	14.032
2449	13.864
2450	13.7
2451	16.457
2452	17.492
2453	16.573
2454	15.378
2455	14.725
2456	17.355
2457	15.732
2458	15.729
2459	15.377
2460	16.457
2461	17.284
2462	16.733
2463	5.3823
2464	5.3818
2465	5.6885
2466	5.029
2467	5.1714
2468	5.1574
2469	5.0186
2470	5.8865
2471	5.7541
2472	5.161
2473	5.3175
2474	5.1637
2475	5.3189
2476	5.8613
2477	6.0107
2478	5.647
2479	5.7994
2480	5.6571
2481	5.6066
2482	5.6032
2483	6.3355
2484	6.331
2485	6.4994
2486	6.5103
2487	6.6781
2488	6.7166
2489	6.5694
2490	6.3595
2491	5.9477
2492	5.9446
2493	6.5738
2494	6.3662
2495	5.7952
2496	6.4179
2497	6.0511
2498	5.8797
2499	5.8754
2500	6.0332
2501	5.7999
2502	6.0386
2503	0.44685
2504	0.41755
2505	0.58968
2506	0.63444
2507	0.50176
2508	0.40824
2509	0.39664
2510	0.6019
2511	0.6388
2512	0.51415
2513	0.45733
2514	0.48687
2515	0.51656
2516	0.46126
2517	0.53446
2518	0.92606
2519	0.88045
2520	0.92395
2521	0.97967
2522	1.0426
2523	0.72242
2524	0.84054
2525	1.0705
2526	0.86076
2527	1.0149
2528	0.64696
2529	0.7365
2530	0.67249
2531	0.78009
2532	0.63246
2533	0.75321
2534	0.79817
2535	0.55645
2536	0.64675
2537	0.69556
2538	0.58141
2539	0.75253
2540	0.88753
2541	0.83726
2542	0.7224
2543	0.97449
2544	0.98231
2545	2.1187
2546	2.138
2547	1.7143
2548	1.7735
2549	1.5706
2550	1.6869
2551	1.4256
2552	1.4787
2553	1.9854
2554	2.268
2555	2.0085
2556	2.3188
2557	2.7864
2558	2.8072
2559	2.7467
2560	2.7833
2561	2.3061
2562	2.0048
2563	2.1146
2564	1.6149
2565	1.5259
2566	1.7833
2567	2.2991
2568	2.3718
2569	2.095
2570	4.8383
2571	4.8671
2572	5.5159
2573	5.3354
2574	5.4725
2575	5.2476
2576	5.6944
2577	4.1975
2578	3.9091
2579	4.7871
2580	4.7013
2581	5.5312
2582	5.2987
2583	4.7457
2584	6.1803
2585	6.4363
2586	3.1157
2587	4.0835
2588	3.3642
2589	5.4352
2590	5.193
2591	4.8705
2592	5.4046
2593	0.60121
2594	0.55159
2595	0.60409
2596	0.6848
2597	0.79874
2598	0.969
2599	0.60646
2600	0.76525
2601	0.90437
2602	0.9045
2603	0.93922
2604	0.87834
2605	0.94936
2606	0.84452
2607	1.0728
2608	0.87666
2609	0.95931
2610	2.1623
2611	1.8371
2612	2.0624
2613	2.339
2614	1.3521
2615	1.7783
2616	1.6614
2617	1.8015
2618	1.4289
2619	1.315
2620	2.3533
2621	1.9111
2622	1.0848
2623	1.5867
2624	2.0565
2625	1.3034
2626	1.1154
2627	1.222
2628	1.4544
2629	2.0773
2630	2.4124
2631	1.6844
2632	2.4322
2633	2.2225
2634	2.0069
2635	1.8853
2636	1.6919
2637	2.0186
2638	2.2413
2639	2.7131
2640	2.2757
2641	2.5574
2642	1.1455
2643	1.2823
2644	1.1996
2645	1.0119
2646	1.0751
2647	1.4679
2648	1.3497
2649	1.3545
2650	1.5321
2651	1.4509
2652	1.0331
2653	1.5613
2654	1.122
2655	1.2074
2656	1.0954
2657	2.3425
2658	2.9385
2659	1.5272
2660	2.4095
2661	2.9853
2662	0.52891
2663	0.79443
2664	3.0473
2665	1.6446
2666	2.1982
2667	2.5729
2668	1.1041
2669	1.0464
2670	0.59151
2671	0.65721
2672	1.1328
2673	1.7661
2674	2.1712
2675	1.7704
2676	1.9876
2677	1.2305
2678	1.063
2679	0.99446
2680	0.76679
2681	0.95579
2682	1.3161
2683	1.2732
2684	0.91758
2685	0.88261
2686	1.0962
2687	1.1672
2688	1.299
2689	1.3083
2690	0.12102
2691	8.1709e-002
2692	8.1863e-002
2693	0.19195
2694	0.13962
2695	0.18954
2696	0.10888
2697	0.12394
2698	0.19304
2699	0.20185
2700	0.14406
2701	0.13333
2702	0.14492
2703	0.11692
2704	0.19752
2705	9.8618e-002
2706	5.4739
2707	4.5343
2708	5.4327
2709	5.4847
2710	6.0159
2711	5.9378
2712	3.9167
2713	4.0587
2714	3.8358
2715	3.779
2716	4.306
2717	5.3988
2718	5.778
2719	4.5161
2720	4.6241
2721	4.9234
2722	1.2164
2723	1.076
2724	0.98321
2725	0.95213
2726	1.2927
2727	1.1398
2728	1.1554
2729	0.77732
2730	0.8327
2731	0.73657
2732	0.78898
2733	0.82148
2734	1.3851
2735	1.1714
2736	0.80221
2737	0.91136
2738	0.884
2739	1.0187
2740	1.1953
2741	0.90947
2742	1.3195
2743	1.0818
2744	0.93475
2745	0.99373
2746	3.3233
2747	3.0862
2748	3.0577
2749	3.1291
2750	3.2057
2751	3.131
2752	2.597
2753	2.6892
2754	2.7879
2755	2.7907
2756	2.9202
2757	3.0805
2758	2.3404
2759	2.6545
2760	2.684
2761	2.3979
2762	1.8875
2763	1.818
2764	1.7645
2765	1.6555
2766	1.7768
2767	2.2819
2768	1.6491
2769	4.1517
2770	3.4302
2771	3.3038
2772	4.1094
2773	4.2999
2774	4.4642
2775	4.0158
2776	2.7358
2777	3.0892
2778	2.728
2779	3.7585
2780	2.1343
2781	2.5102
2782	3.2771
2783	0.37392
2784	0.52674
2785	0.94197
2786	1.0969
2787	0.85585
2788	0.31608
2789	0.51239
2790	0.55974
2791	0.48157
2792	1.0047
2793	0.74473
2794	0.45018
2795	0.69201
2796	0.78069
2797	0.87114
2798	0.66632
2799	4.9577
2800	5.6972
2801	4.7218
2802	4.9565
2803	5.1679
2804	4.9194
2805	5.1246
2806	5.668
2807	5.6977
2808	5.9569
2809	5.1231
2810	5.635
2811	5.1683
2812	5.6353
2813	5.6684
2814	5.4097
2815	5.4148
2816	4.3804
2817	4.5527
2818	4.4795
2819	4.4707
2820	5.1937
2821	5.0556
2822	5.2471
2823	5.2438
2824	4.6392
2825	4.7831
2826	4.6469
2827	4.3919
2828	4.5451
2829	4.9674
2830	5.0876
2831	5.1917
2832	5.0516
2833	4.6379
2834	4.7798
2835	4.7687
2836	3.905
2837	3.2251
2838	3.432
2839	3.8417
2840	3.9482
2841	4.1172
2842	3.3477
2843	3.4835
2844	3.6084
2845	3.6118
2846	4.1823
2847	3.6385
2848	4.0041
2849	3.985
2850	3.2053
2851	2.4919
2852	2.6182
2853	2.1127
2854	2.0218
2855	2.3289
2856	3.1421
2857	3.4641
2858	2.6277
2859	1.729
2860	1.8051
2861	1.7345
2862	1.7129
2863	1.978
2864	1.7585
2865	3.1755
2866	3.5632
2867	2.0291
2868	1.987
2869	2.4109
2870	3.3966
2871	2.2214
2872	2.4077
2873	2.8958
2874	5.2571
2875	5.2839
2876	5.2557
2877	5.8588
2878	6.0504
2879	5.4444
2880	5.2803
2881	5.4504
2882	5.4474
2883	5.9402
2884	6.0923
2885	5.768
2886	5.9311
2887	6.1044
2888	5.9401
2889	5.7785
2890	5.7678
2891	0.93467
2892	0.94552
2893	0.81448
2894	0.75858
2895	0.87252
2896	0.85798
2897	0.97579
2898	0.98173
2899	0.81931
2900	0.86535
2901	0.9648
2902	0.82218
2903	0.99653
2904	1.0153
2905	0.95309
2906	1.4447
2907	1.564
2908	1.5075
2909	1.3704
2910	0.85046
2911	1.4038
2912	1.1457
2913	1.2833
2914	0.9695
2915	1.0289
2916	1.1954
2917	0.96319
2918	0.96749
2919	1.2358
2920	0.23966
2921	0.28994
2922	0.35108
2923	0.35922
2924	0.28237
2925	0.23622
2926	0.34538
2927	0.1881
2928	0.2441
2929	0.30479
2930	0.2645
2931	0.28866
2932	0.24959
2933	0.24735
2934	0.23268
2935	0.17407
2936	0.19318
2937	0.87012
2938	0.75522
2939	0.83103
2940	0.83108
2941	0.91528
2942	0.74558
2943	0.87103
2944	0.49419
2945	0.57118
2946	0.70626
2947	0.64448
2948	0.53829
2949	0.5744
2950	0.45976
2951	0.44416
2952	3.964
2953	4.6174
2954	4.0541
2955	4.4743
2956	4.3939
2957	4.6158
2958	5.3446
2959	4.4907
2960	4.6106
2961	3.5995
2962	4.5237
2963	5.584
2964	3.9132
2965	1.3773
2966	1.3159
2967	1.723
2968	1.6902
2969	1.2248
2970	1.1803
2971	1.5073
2972	1.7334
2973	1.843
2974	1.4356
2975	1.6912
2976	1.4867
2977	1.8209
2978	1.8944
2979	1.7969
2980	1.7075
2981	1.5608
2982	0.92196
2983	0.93652
2984	1.4357
2985	1.1222
2986	1.0088
2987	0.89687
2988	0.81241
2989	0.691
2990	1.2459
2991	1.4699
2992	0.97355
2993	1.0981
2994	1.2837
2995	0.95453
2996	0.91703
2997	1.2041
2998	1.3634
2999	1.0548
3000	1.4341
3001	1.4164
3002	1.6881
3003	1.6564
3004	1.7137
3005	1.7466
3006	2.2534
3007	2.3205
3008	1.7082
3009	1.9938
3010	1.792
3011	1.7968
3012	2.4253
3013	2.1124
3014	2.0079
3015	2.7128
3016	2.6429
3017	2.2891
3018	4.3069
3019	4.4236
3020	4.5846
3021	5.8026
3022	4.484
3023	5.2876
3024	3.8652
3025	3.6069
3026	4.8475
3027	5.6945
3028	3.9318
3029	4.6461
3030	3.9858
3031	5.5679
3032	4.9721
3033	5.7751
3034	4.5438
3035	12.029
3036	11.973
3037	12.195
3038	12.23
3039	12.091
3040	12.03
3041	12.059
3042	12.693
3043	12.538
3044	12.324
3045	12.191
3046	12.227
3047	12.502
3048	12.439
3049	12.555
3050	12.71
3051	12.478
3052	12.329
3053	12.572
3054	12.435
3055	1.7337
3056	1.9605
3057	1.9025
3058	1.6139
3059	1.7512
3060	1.2678
3061	1.3707
3062	1.1544
3063	1.0295
3064	1.7838
3065	1.5396
3066	1.6646
3067	1.1121
3068	1.8546
3069	1.2977
3070	3.8225
3071	3.5255
3072	2.3037
3073	2.2401
3074	2.5156
3075	5.2861
3076	5.2706
3077	2.4776
3078	2.4306
3079	2.6244
3080	2.2666
3081	2.8746
3082	3.4461
3083	3.5377
3084	4.1258
3085	4.5598
3086	4.4585
3087	3.8169
3088	0.30047
3089	0.37602
3090	0.47087
3091	0.46414
3092	0.37903
3093	0.37113
3094	0.29655
3095	0.36648
3096	0.538
3097	0.48145
3098	1.0251
3099	1.0556
3100	1.1617
3101	1.2526
3102	1.2057
3103	1.4323
3104	1.587
3105	1.3391
3106	1.3972
3107	1.4511
3108	1.7016
3109	1.5555
3110	0.71369
3111	0.75974
3112	0.75037
3113	0.65937
3114	0.71089
3115	0.85757
3116	0.70023
3117	0.87818
3118	0.77788
3119	0.82909
3120	0.78975
3121	13.371
3122	13.278
3123	12.947
3124	13.794
3125	12.543
3126	12.638
3127	13.896
3128	14.304
3129	14.096
3130	13.779
3131	14.163
3132	13.753
3133	13.373
3134	12.635
3135	12.734
3136	14.167
3137	13.289
3138	13.694
3139	13.277
3140	13.776
3141	0.62181
3142	0.58532
3143	0.5913
3144	0.65502
3145	0.74202
3146	0.74577
3147	0.72217
3148	0.80833
3149	0.87571
3150	0.82704
3151	0.75106
3152	0.73666
3153	0.82475
3154	12.64
3155	12.547
3156	13.752
3157	14.162
3158	13.694
3159	13.289
3160	12.946
3161	12.737
3162	12.64
3163	14.303
3164	13.893
3165	13.37
3166	13.277
3167	13.775
3168	14.166
3169	13.372
3170	13.278
3171	13.777
3172	14.095
3173	13.792
3174	2.2037
3175	2.1218
3176	2.388
3177	2.3658
3178	2.499
3179	2.9953
3180	1.8018
3181	1.9474
3182	1.8613
3183	2.2491
3184	2.5421
3185	2.6209
3186	2.3564
3187	0.95786
3188	0.95763
3189	0.89802
3190	0.90011
3191	1.1135
3192	1.3839
3193	1.2117
3194	1.04
3195	1.4103
3196	1.2752
3197	1.1474
3198	1.4068
3199	1.3613
3200	1.3367
3201	1.1999
3202	1.3469
3203	5.3179
3204	5.7039
3205	4.7763
3206	6.3626
3207	7.1339
3208	1.5789
3209	1.605
3210	2.6608
3211	3.1953
3212	1.3842
3213	1.5405
3214	2.6173
3215	2.0779
3216	2.4884
3217	2.9733
3218	2.5093
3219	1.9989
3220	3.0922
3221	2.5371
3222	3.1809
3223	3.262
3224	10.353
3225	7.6811
3226	4.4149
3227	4.6114
3228	7.7956
3229	10.618
3230	8.031
3231	6.4343
3232	4.525
3233	4.7451
3234	4.8249
3235	5.9082
3236	7.2481
3237	5.4263
3238	5.9895
3239	5.4393
3240	6.0568
3241	3.2825
3242	2.4657
3243	2.1329
3244	2.6886
3245	2.5342
3246	3.5371
3247	3.7966
3248	1.7747
3249	1.5274
3250	2.1586
3251	2.3501
3252	1.9987
3253	3.9815
3254	4.1051
3255	1.702
3256	1.7184
3257	2.9364
3258	2.3053
3259	2.8183
3260	2.115
3261	2.4075
3262	2.5955
3263	2.3363
3264	2.6441
3265	1.5979
3266	1.6142
3267	1.6741
3268	2.101
3269	2.2387
3270	1.3498
3271	2.07
3272	1.5554
3273	1.7641
3274	1.417
3275	1.3006
3276	1.2164
3277	1.5111
3278	1.678
3279	2.0381
3280	2.4082
3281	2.4404
3282	2.3185
3283	2.3195
3284	1.4247
3285	1.1252
3286	1.1319
3287	0.91615
3288	0.96464
3289	1.9391
3290	1.816
3291	1.1251
3292	1.645
3293	3.1767
3294	3.8551
3295	3.089
3296	3.7608
3297	2.6055
3298	4.1255
3299	3.341
3300	2.6419
3301	3.6102
3302	4.0123
3303	2.8909
3304	2.3437
3305	1.9235
3306	1.8415
3307	2.2063
3308	4.0013
3309	4.4262
3310	3.8594
3311	4.4132
3312	2.0452
3313	3.4774
3314	0.27403
3315	0.25008
3316	0.47274
3317	0.41715
3318	0.4127
3319	0.35983
3320	0.29032
3321	0.36358
3322	0.50843
3323	0.43746
3324	0.42469
3325	0.38059
3326	0.56485
3327	0.5401
3328	0.53254
3329	1.2094
3330	1.1076
3331	1.0034
3332	0.95197
3333	1.0758
3334	0.5725
3335	0.49108
3336	0.88098
3337	0.95919
3338	0.72631
3339	0.79223
3340	0.63487
3341	0.80208
3342	0.83639
3343	0.5882
3344	0.49841
3345	0.68947
3346	0.63198
3347	2.4208
3348	2.0011
3349	2.4183
3350	2.1594
3351	2.5228
3352	2.5342
3353	3.7295
3354	2.9068
3355	2.7628
3356	2.5298
3357	3.7997
3358	2.6197
3359	2.4703
3360	3.4108
3361	0.74737
3362	0.71839
3363	1.0786
3364	1.1731
3365	0.76251
3366	0.80311
3367	1.0673
3368	1.0013
3369	0.9923
3370	1.0351
3371	1.1573
3372	0.99791
3373	1.0522
3374	1.1673
3375	0.9716
3376	1.1611
3377	0.8814
3378	0.96626
3379	0.86248
3380	1.0664
3381	1.1712
3382	0.8724
3383	1.0166
3384	0.88367
3385	1.8048
3386	2.5044
3387	3.0419
3388	2.356
3389	2.1829
3390	3.6591
3391	2.3327
3392	3.0507
3393	3.4882
3394	2.472
3395	3.0481
3396	2.6236
3397	1.8929
3398	2.1013
3399	1.997
3400	2.8658
3401	2.9967
3402	2.4393
3403	1.7611
3404	1.916
3405	1.6497
3406	1.5805
3407	1.481
3408	1.5739
3409	1.7121
3410	1.8615
3411	1.6269
3412	1.5157
3413	1.6269
3414	1.6085
3415	1.7846
3416	1.6286
3417	1.602
3418	1.5788
3419	1.6826
3420	1.8529
3421	1.0512
3422	1.1811
3423	1.2099
3424	1.3145
3425	1.3343
3426	1.7766
3427	1.6958
3428	1.5639
3429	1.6136
3430	1.8562
3431	1.7792
3432	1.0346
3433	1.2126
3434	1.4937
3435	1.4785
3436	1.2219
3437	1.1939
3438	1.3186
3439	1.213
3440	1.2077
3441	1.175
3442	1.3309
3443	1.8099
3444	1.7648
3445	1.3567
3446	1.4268
3447	1.6529
3448	1.5844
3449	3.9279
3450	3.931
3451	5.1639
3452	4.2635
3453	4.2962
3454	6.5003
3455	7.7621
3456	7.4817
3457	7.8357
3458	7.1419
3459	6.2415
3460	5.9652
3461	6.8497
3462	5.1381
3463	5.6678
3464	7.1439
3465	7.0318
3466	5.78
3467	5.1615
3468	4.6793
3469	4.879
3470	4.7998
3471	4.2495
3472	3.6649
3473	3.6964
3474	4.4984
3475	3.4095
3476	3.6676
3477	3.6069
3478	3.5465
3479	4.7392
3480	4.0105
3481	12.075
3482	12.085
3483	12.293
3484	12.321
3485	12.074
3486	12.765
3487	12.592
3488	12.45
3489	12.292
3490	12.139
3491	12.086
3492	12.713
3493	12.563
3494	12.417
3495	12.585
3496	12.56
3497	12.642
3498	12.324
3499	0.81083
3500	0.91583
3501	0.7873
3502	0.66756
3503	0.99684
3504	1.0466
3505	0.98359
3506	0.71454
3507	0.85729
3508	0.87947
3509	0.63855
3510	0.66753
3511	0.81
3512	1.2762
3513	1.3453
3514	1.0545
3515	1.1105
3516	1.4105
3517	1.4353
3518	1.2529
3519	0.86717
3520	0.91474
3521	0.89068
3522	1.2584
3523	0.67754
3524	0.76988
3525	0.64984
3526	0.74146
3527	0.82279
3528	0.99026
3529	11.884
3530	11.911
3531	11.596
3532	11.701
3533	11.929
3534	11.956
3535	11.765
3536	11.774
3537	11.609
3538	11.58
3539	11.728
3540	11.691
3541	11.846
3542	11.87
3543	11.702
3544	11.597
3545	11.772
3546	11.73
3547	11.767
3548	11.703
3549	0.71327
3550	0.78321
3551	0.56306
3552	0.59076
3553	0.69729
3554	0.71687
3555	0.7499
3556	0.68942
3557	0.69192
3558	0.76136
3559	0.54509
3560	0.50616
3561	0.78753
3562	0.52087
3563	0.71911
3564	0.55802
3565	0.60274
3566	0.76201
3567	0.6286
3568	0.62593
3569	0.66893
3570	0.55395
3571	0.35747
3572	0.51986
3573	0.46381
3574	1.0044
3575	1.055
3576	1.0275
3577	1.0666
3578	0.88772
3579	0.86772
3580	0.98991
3581	0.9887
3582	0.78473
3583	0.78426
3584	0.95021
3585	0.95027
3586	0.84952
3587	0.85456
3588	2.551
3589	2.8893
3590	2.8799
3591	3.036
3592	3.0996
3593	2.7413
3594	2.4912
3595	2.9231
3596	3.424
3597	3.5201
3598	3.6763
3599	3.6301
3600	2.8755
3601	3.3434
3602	3.3816
3603	3.9083
3604	3.7726
3605	3.2175
3606	3.0171
3607	2.1566
3608	2.7385
3609	2.2786
3610	2.8299
3611	2.3397
3612	3.148
3613	2.3282
3614	3.6191
3615	4.0249
3616	3.4072
3617	1.9029
3618	1.9735
3619	3.5025
3620	2.53
3621	3.113
3622	3.5179
3623	11.421
3624	11.401
3625	11.454
3626	11.428
3627	11.156
3628	11.009
3629	11.181
3630	11.095
3631	10.974
3632	11.001
3633	11.17
3634	10.845
3635	11.253
3636	11.15
3637	10.902
3638	11.251
3639	11.362
3640	11.095
3641	1.0408
3642	1.1474
3643	1.0732
3644	1.2534
3645	1.5009
3646	1.7505
3647	1.0642
3648	1.2183
3649	1.594
3650	1.5944
3651	1.7819
3652	1.9671
3653	2.2732
3654	2.3923
3655	1.6209
3656	1.948
3657	1.5142
3658	1.9732
3659	2.1788
3660	6.7367
3661	6.1936
3662	5.8742
3663	5.8822
3664	5.1435
3665	5.7224
3666	5.1689
3667	5.0272
3668	4.8894
3669	5.5248
3670	5.9304
3671	4.8849
3672	5.1264
3673	4.6496
3674	4.9765
3675	4.9372
3676	3.8792
3677	11.654
3678	11.981
3679	11.653
3680	11.327
3681	11.839
3682	10.956
3683	10.896
3684	11.84
3685	11.602
3686	11.43
3687	10.827
3688	10.897
3689	11.429
3690	12.074
3691	11.127
3692	11.604
3693	3.7558
3694	3.2309
3695	2.4069
3696	2.2091
3697	4.9763
3698	5.3529
3699	2.5071
3700	2.8004
3701	3.5746
3702	2.8173
3703	3.017
3704	5.6083
3705	5.4482
3706	4.0611
3707	3.0769
3708	4.8079
3709	4.7499
3710	5.7953
3711	5.3476
3712	6.4438
3713	5.8159
3714	4.5555
3715	4.533
3716	5.2577
3717	5.5919
3718	5.33
3719	6.3359
3720	5.7899
3721	6.4114
3722	6.222
3723	5.7291
3724	4.7837
3725	5.2384
3726	5.6776
3727	5.3325
3728	4.5659
3729	4.8098
3730	4.5632
3731	4.3092
3732	5.4181
3733	5.3487
3734	4.8223
3735	5.4142
3736	5.3465
3737	5.5423
3738	5.8609
3739	6.3672
3740	6.3014
3741	6.4458
3742	6.3659
3743	5.9998
3744	5.8094
3745	5.8594
3746	3.8935
3747	4.5692
3748	4.4846
3749	4.4008
3750	5.843
3751	4.0497
3752	5.2998
3753	4.9369
3754	4.341
3755	5.2869
3756	5.1451
3757	4.4619
3758	5.3545
3759	4.3181
3760	4.4351
3761	4.2524
3762	3.6241
3763	5.6849
3764	3.2458
3765	3.8892
3766	2.277
3767	2.6094
3768	2.7268
3769	2.3035
3770	1.5578
3771	1.6464
3772	2.0063
3773	1.8624
3774	2.4796
3775	2.0861
3776	4.1374
3777	4.1202
3778	3.8003
3779	3.8826
3780	3.9213
3781	3.8918
3782	3.8434
3783	3.8852
3784	4.4207
3785	4.166
3786	4.1659
3787	4.427
3788	4.1765
3789	4.6675
3790	4.6565
3791	4.1655
3792	4.4321
3793	0.7064
3794	0.74511
3795	0.66324
3796	0.59495
3797	0.88299
3798	0.83685
3799	0.87681
3800	0.85411
3801	0.786
3802	0.58087
3803	0.69013
3804	0.72861
3805	0.71077
3806	0.64254
3807	0.55803
3808	0.67674
3809	0.7651
3810	0.5743
3811	0.70577
3812	0.77646
3813	5.0078
3814	5.1218
3815	4.9392
3816	4.7531
3817	5.0945
3818	4.4735
3819	4.0672
3820	3.0852
3821	5.0423
3822	3.1972
3823	3.3709
3824	2.9968
3825	3.95
3826	3.7428
3827	2.8769
3828	17.71
3829	16.699
3830	14.278
3831	14.077
3832	14.269
3833	17.117
3834	18.108
3835	16.688
3836	15.897
3837	15.048
3838	16.191
3839	15.887
3840	16.192
3841	18.04
3842	17.109
3843	17.334
3844	2.6982
3845	3.358
3846	3.0142
3847	2.5857
3848	2.8613
3849	2.9433
3850	3.2408
3851	2.1735
3852	2.3668
3853	3.3555
3854	2.3632
3855	2.6739
3856	3.166
3857	0.45204
3858	0.50201
3859	0.33832
3860	0.31545
3861	0.50389
3862	0.54521
3863	0.46305
3864	0.44402
3865	0.43973
3866	0.39176
3867	0.3905
3868	0.3431
3869	0.38196
3870	0.50374
3871	0.48473
3872	0.45711
3873	0.45717
3874	0.43892
3875	0.44574
3876	4.6338
3877	4.6679
3878	4.3452
3879	4.6884
3880	4.1158
3881	4.3385
3882	3.587
3883	3.5883
3884	4.1097
3885	4.7699
3886	4.3604
3887	4.4439
3888	3.3821
3889	3.4156
3890	4.4536
3891	3.6289
3892	4.0171
3893	0.56678
3894	0.67523
3895	0.82358
3896	0.85392
3897	0.94954
3898	0.90756
3899	0.87414
3900	0.43212
3901	0.46491
3902	0.58254
3903	0.62518
3904	0.73151
3905	0.77353
3906	0.69506
3907	0.44059
3908	0.48659
3909	0.65641
3910	0.57789
3911	1.8574
3912	1.7488
3913	1.8366
3914	2.0264
3915	1.5101
3916	1.5447
3917	2.5263
3918	2.3934
3919	2.4555
3920	3.5538
3921	3.4481
3922	3.0387
3923	2.3432
3924	2.4489
3925	2.2623
3926	2.3828
3927	2.3647
3928	2.9353
3929	2.4427
3930	2.3778
3931	2.7807
3932	2.3276
3933	1.4077
3934	1.3016
3935	1.9837
3936	0.82092
3937	0.97002
3938	2.3161
3939	3.0959
3940	0.65567
3941	2.1849
3942	1.8248
3943	2.1281
3944	2.795
3945	2.0919
3946	1.6576
3947	0.62796
3948	1.0527
3949	1.7558
3950	2.2246
3951	2.9237
3952	1.1572
3953	2.9587
3954	1.0561
3955	6.5417
3956	6.9257
3957	9.2135
3958	8.4485
3959	7.1823
3960	10.489
3961	6.3859
3962	8.0581
3963	7.0378
3964	9.6423
3965	5.7602
3966	11.011
3967	9.7995
3968	2.0155
3969	2.1489
3970	1.8174
3971	2.1361
3972	2.3253
3973	1.8689
3974	2.1896
3975	2.3346
3976	2.741
3977	1.8686
3978	2.1717
3979	1.9147
3980	1.8457
3981	2.601
3982	2.5151
3983	2.3136
3984	2.3308
3985	1.6371
3986	1.8587
3987	1.8348
3988	1.6189
3989	1.7602
3990	1.8069
3991	1.5077
3992	1.6356
3993	1.8197
3994	1.7069
3995	1.0181
3996	1.1938
3997	1.1154
3998	1.2884
3999	1.2532
4000	1.1329
4001	1.3387
4002	1.3904
4003	1.414
4004	1.4937
4005	1.4067
4006	3.6364
4007	3.2172
4008	3.131
4009	3.4894
4010	3.0142
4011	3.0558
4012	2.904
4013	3.3796
4014	2.7364
4015	3.1766
4016	3.5039
4017	2.1113
4018	2.3644
4019	1.9491
4020	2.2522
4021	1.3797
4022	1.9158
4023	1.614
4024	0.63193
4025	0.67825
4026	0.66369
4027	0.74076
4028	0.65614
4029	0.72196
4030	0.67934
4031	0.53412
4032	0.51168
4033	0.70615
4034	0.64279
4035	0.58582
4036	0.59121
4037	0.64036
4038	0.5273
4039	0.80748
4040	0.71323
4041	0.93021
4042	0.83679
4043	0.71921
4044	1.4163
4045	1.3199
4046	1.1035
4047	1.2873
4048	1.1223
4049	1.2025
4050	1.0106
4051	0.90657
4052	0.94816
4053	0.81691
4054	0.91127
4055	0.8902
4056	0.80645
4057	1.0492
4058	0.99237
4059	0.91274
4060	1.1676
4061	1.0789
4062	1.0547
4063	1.1237
4064	2.1039
4065	2.0709
4066	2.2906
4067	1.9782
4068	2.1159
4069	2.2908
4070	2.4136
4071	2.2485
4072	2.0402
4073	1.4901
4074	1.642
4075	1.7861
4076	1.2442
4077	1.8289
4078	1.1519
4079	2.0613
4080	1.7599
4081	1.7194
4082	1.5355
4083	1.3799
4084	1.4418
4085	13.558
4086	13.411
4087	15.907
4088	16.697
4089	16.367
4090	15.576
4091	13.708
4092	13.559
4093	14.282
4094	15.143
4095	14.854
4096	15.79
4097	16.489
4098	16.559
4099	14.73
4100	15.517
4101	15.141
4102	14.854
4103	15.999
4104	15.787
4105	2.4351
4106	2.2101
4107	2.2904
4108	2.8286
4109	1.2607
4110	0.85738
4111	1.3652
4112	0.86951
4113	1.909
4114	1.7847
4115	1.0247
4116	1.709
4117	0.85808
4118	0.64542
4119	3.0359
4120	1.6408
4121	2.5248
4122	2.2182
4123	0.80575
4124	0.7258
4125	0.75108
4126	2.162
4127	1.8971
4128	2.1557
4129	2.1475
4130	1.919
4131	1.9765
4132	2.759
4133	2.82
4134	4.2112
4135	4.1016
4136	1.7765
4137	2.459
4138	3.0012
4139	3.6938
4140	4.496
4141	2.7773
4142	3.1505
4143	3.1459
4144	3.6824
4145	14.722
4146	13.697
4147	13.862
4148	15.725
4149	15.372
4150	15.728
4151	13.86
4152	14.026
4153	16.728
4154	15.372
4155	16.034
4156	15.117
4157	17.01
4158	16.093
4159	16.453
4160	17.281
4161	16.451
4162	16.57
4163	17.489
4164	17.352
4165	5.7759
4166	5.5482
4167	6.0445
4168	5.8273
4169	6.2247
4170	6.2982
4171	5.6121
4172	6.1649
4173	6.3537
4174	6.3515
4175	7.28
4176	7.4449
4177	6.7721
4178	6.9326
4179	6.5558
4180	7.385
4181	7.4864
4182	7.1569
4183	7.3292
4184	7.1582
4185	7.3313
4186	7.4685
4187	6.7725
4188	6.9338
4189	7.5448
4190	7.6492
4191	7.2798
4192	7.3843
4193	7.3803
4194	7.5247
4195	7.3826
4196	7.619
4197	7.4865
4198	7.5563
4199	7.2812
4200	4.9104e-002
4201	2.6574e-002
4202	2.9008e-002
4203	3.4291e-002
4204	2.9062e-002
4205	8.6681e-002
4206	7.4521e-002
4207	5.285e-002
4208	7.4988e-002
4209	3.0665e-002
4210	2.8945e-002
4211	6.3556e-002
4212	5.3846e-002
4213	3.6324e-002
4214	4.6419e-002
4215	6.1183
4216	6.9693
4217	6.434
4218	5.9292
4219	3.6181
4220	4.1172
4221	2.5154
4222	3.5181
4223	4.7724
4224	2.7967
4225	1.8619
4226	5.1982
4227	6.5124
4228	2.6721
4229	5.391
4230	4.1528
4231	6.6256
4232	5.1417
4233	6.0044
4234	4.5184
4235	3.8401
4236	5.3185
4237	5.6763
4238	4.4248
4239	4.7041
4240	5.0644
4241	4.9979
4242	3.3624
4243	3.0484
4244	3.748
4245	5.0697
4246	5.0005
4247	4.3923
4248	4.705
4249	4.9911
4250	3.7449
4251	3.3625
4252	4.4927
4253	3.7529
4254	4.3938
4255	0.41262
4256	0.23391
4257	0.21534
4258	0.36943
4259	0.34195
4260	0.32071
4261	4.113
4262	4.4896
4263	3.2212
4264	3.6265
4265	3.8953
4266	4.0616
4267	4.0076
4268	3.69
4269	4.2626
4270	2.9561
4271	3.305
4272	3.7371
4273	1.6406
4274	2.0342
4275	2.0422
4276	2.2334
4277	1.5871
4278	1.4845
4279	1.8374
4280	1.8538
4281	1.5045
4282	1.4401
4283	1.3815
4284	1.2641
4285	1.5152
4286	1.8462
4287	2.0363
4288	2.1892
4289	1.7178
4290	2.0114
4291	1.294
4292	1.2403
4293	1.4004
4294	1.0578
4295	1.3729
4296	1.6679
4297	1.1856
4298	1.0805
4299	1.1096
4300	6.0087
4301	5.7875
4302	4.8968
4303	5.066
4304	6.235
4305	4.2595
4306	6.6449
4307	6.0117
4308	4.6348
4309	5.5382
4310	4.385
4311	4.5947
4312	3.9794
4313	4.223
4314	6.0765
4315	5.2999
4316	4.6175
4317	6.0507
4318	5.5927
4319	6.9872
4320	6.2228
4321	5.1536
4322	4.7196
4323	5.8583
4324	5.4654
4325	5.4449
4326	4.8438
4327	5.1475
4328	5.376
4329	5.1409
4330	5.2832
4331	4.8568
4332	5.0954
4333	4.9373
4334	4.9209
4335	5.1667
4336	5.1
4337	5.2912
4338	5.2699
4339	5.2579
4340	5.581
4341	5.7339
4342	5.1108
4343	5.3087
4344	5.5821
4345	5.5688
4346	5.5916
4347	2.3445
4348	2.5057
4349	4.1883
4350	4.4841
4351	3.1176
4352	3.9129
4353	3.7754
4354	2.7907
4355	2.6087
4356	3.8604
4357	4.1515
4358	3.1253
4359	3.3083
4360	2.6436
4361	3.5514
4362	3.2227
4363	0.96254
4364	0.89381
4365	0.97138
4366	1.0707
4367	1.0309
4368	1.1093
4369	1.2204
4370	1.1926
4371	1.2699
4372	1.438
4373	1.5081
4374	1.5014
4375	0.17678
4376	0.19646
4377	0.20768
4378	0.19247
4379	0.12238
4380	0.15213
4381	0.15434
4382	0.19019
4383	6.5133e-002
4384	7.0936e-002
4385	0.1427
4386	4.672e-002
4387	6.5338e-002
4388	0.11612
4389	0.11509
4390	7.7169e-002
4391	6.2016e-002
4392	9.0583e-002
4393	5.8328
4394	5.4939
4395	5.5869
4396	5.8155
4397	5.4924
4398	5.2711
4399	5.5945
4400	5.4087
4401	5.3514
4402	4.9665
4403	5.1372
4404	5.8391
4405	5.0328
4406	4.9731
4407	4.9178
4408	5.5074
4409	5.3626
4410	1.7284
4411	1.6198
4412	1.4951
4413	2.5034
4414	1.9911
4415	2.6176
4416	2.6968
4417	3.6776
4418	3.4426
4419	2.2251
4420	2.9488
4421	3.6516
4422	3.7212
4423	2.1363
4424	2.1516
4425	3.0349
4426	3.9624
4427	1.828
4428	1.7311
4429	2.5988
4430	2.7473
4431	3.4082
4432	3.5396
4433	2.5118
4434	2.1377
4435	2.6652
4436	3.3717
4437	2.6489
4438	1.7711
4439	3.9116
4440	2.9671
4441	2.2837
4442	1.6572
4443	0.79791
4444	1.0252
4445	0.93057
4446	1.085
4447	1.1117
4448	0.97458
4449	0.87711
4450	1.2624
4451	1.2619
4452	0.79693
4453	0.96598
4454	1.0894
4455	0.95638
4456	1.1442
4457	0.76682
4458	1.0126
4459	0.92595
4460	1.1179
4461	1.2269
4462	1.2298
4463	1.4676
4464	1.1982
4465	1.3177
4466	1.0931
4467	1.1652
4468	1.3765
4469	1.4957
4470	1.4668
4471	1.3012
4472	1.5441
4473	1.5963
4474	1.3885
4475	1.5097
4476	1.4869
4477	1.557
4478	1.1368
4479	1.6457
4480	1.3225
4481	2.0339
4482	1.8699
4483	1.8223
4484	1.2939
4485	1.5538
4486	2.075
4487	2.3153
4488	2.5798
4489	2.2648
4490	2.2431
4491	1.6607
4492	1.6017
4493	1.6029
4494	1.8414
4495	1.9493
4496	2.0368
4497	1.8445
4498	1.7314
4499	1.2234
4500	1.3246
4501	1.2007
4502	1.5113
4503	1.703
4504	1.6183
4505	1.6511
4506	1.4675
4507	1.3358
4508	0.76951
4509	0.79183
4510	0.81315
4511	0.89084
4512	0.88969
4513	0.73057
4514	0.83266
4515	0.94297
4516	0.95306
4517	0.70973
4518	0.75259
4519	0.92603
4520	0.81502
4521	0.8856
4522	0.96462
4523	0.71788
4524	0.95808
4525	0.29902
4526	0.22365
4527	0.39138
4528	0.30687
4529	0.15861
4530	0.21358
4531	0.36385
4532	0.47613
4533	0.35586
4534	0.20811
4535	0.19774
4536	0.30019
4537	0.46041
4538	0.12175
4539	0.39324
4540	0.47681
4541	0.28092
4542	0.36321
4543	0.24607
4544	0.14678
4545	7.5646e-002
4546	9.5117e-002
4547	0.13723
4548	0.37237
4549	0.17856
4550	0.32517
4551	1.9916
4552	2.1249
4553	1.2901
4554	1.1148
4555	1.7559
4556	1.6329
4557	2.3836
4558	1.326
4559	3.0723
4560	3.5159
4561	3.6189
4562	1.3091
4563	1.1441
4564	0.99094
4565	0.97875
4566	0.83706
4567	1.1083
4568	1.255
4569	1.2172
4570	1.0919
4571	0.99623
4572	1.1563
4573	1.3621
4574	1.3797
4575	1.4784
4576	1.1044
4577	1.355
4578	1.6612
4579	1.2657
4580	1.4379
4581	0.62548
4582	0.50363
4583	0.45101
4584	0.47267
4585	0.7018
4586	0.62805
4587	0.5184
4588	0.51222
4589	0.91921
4590	1.0295
4591	0.48427
4592	0.52096
4593	1.0095
4594	0.82453
4595	0.67761
4596	1.505
4597	1.5056
4598	1.7808
4599	1.7541
4600	1.2862
4601	1.521
4602	1.0172
4603	1.5816
4604	1.3632
4605	1.4443
4606	1.0002
4607	1.1834
4608	1.2656
4609	1.2041
4610	1.1478
4611	1.7354
4612	2.0162
4613	1.7085
4614	1.6368
4615	1.8824
4616	2.2577
4617	1.8752
4618	2.2765
4619	1.6316
4620	1.7085
4621	1.7015
4622	1.6625
4623	1.6185
4624	1.856
4625	1.6136
4626	1.6041
4627	2.1001
4628	1.7256
4629	1.9395
4630	1.676
4631	1.9279
4632	1.6021
4633	1.5406
4634	1.9639
4635	1.5608
4636	4.1391
4637	4.726
4638	2.6266
4639	3.2642
4640	2.6531
4641	5.3681
4642	3.2924
4643	1.9266
4644	1.9978
4645	4.5981
4646	3.4755
4647	4.8533
4648	4.0564
4649	2.1745
4650	1.3903
4651	1.3667
4652	2.5582
4653	2.2758
4654	1.4767
4655	1.6141
4656	1.7017
4657	2.2091
4658	2.9729
4659	2.8203
4660	2.0518
4661	1.3913
4662	1.2571
4663	1.5586
4664	1.7824
4665	2.1092
4666	2.1333
4667	2.0983
4668	3.0915
4669	2.2843
4670	2.8524
4671	1.9804
4672	1.9119
4673	1.8895
4674	1.8806
4675	0.58285
4676	0.46615
4677	0.64157
4678	0.68864
4679	0.65888
4680	0.64159
4681	0.47522
4682	0.8461
4683	0.9295
4684	0.77027
4685	0.62109
4686	0.50751
4687	0.79977
4688	0.75907
4689	0.34294
4690	0.33922
4691	0.37474
4692	0.37897
4693	0.3489
4694	0.30129
4695	0.27236
4696	0.29508
4697	0.25142
4698	0.24893
4699	0.30202
4700	0.19861
4701	0.16903
4702	0.16952
4703	0.21679
4704	0.28592
4705	0.24947
4706	0.24939
4707	0.19067
4708	0.18466
4709	3.2953
4710	3.3347
4711	4.8909
4712	6.3524
4713	4.238
4714	2.2386
4715	7.2036
4716	6.0262
4717	6.956
4718	3.8945
4719	4.1371
4720	0.61421
4721	0.64156
4722	1.7798
4723	1.2913
4724	5.6162
4725	2.1988
4726	2.4691
4727	1.9395
4728	2.4152
4729	5.1632
4730	1.4316
4731	3.1421
4732	1.6971
4733	1.881
4734	2.1601
4735	2.1097
4736	2.0085
4737	1.6736
4738	2.1483
4739	1.9823
4740	1.9332
4741	1.5689
4742	1.7954
4743	1.9418
4744	1.6959
4745	1.8862
4746	1.8629
4747	1.8403
4748	1.6011
4749	1.6672
4750	1.9748
4751	2.1738
4752	2.0145
4753	2.0528
4754	1.8433
4755	1.827
4756	1.1329
4757	1.5813
4758	1.2521
4759	1.6424
4760	1.7884
4761	0.95686
4762	1.4712
4763	1.1486
4764	0.93611
4765	2.0565
4766	2.7872
4767	2.0382
4768	1.7223
4769	1.8545
4770	1.7951
4771	2.4529
4772	2.8825
4773	3.5386
4774	3.7646
4775	2.6378
4776	2.4213
4777	3.6063
4778	2.1388
4779	2.574
4780	1.6554
4781	1.7809
4782	2.8621
4783	2.3142
4784	2.4307
4785	2.8662
4786	1.7123
4787	1.5402
4788	1.2972
4789	1.3149
4790	1.8056
4791	1.616
4792	1.7801
4793	1.6176
4794	1.6772
4795	1.8541
4796	1.6684
4797	1.8379
4798	1.5552
4799	1.5682
4800	1.813
4801	4.5317
4802	4.4148
4803	4.2062
4804	4.3647
4805	4.3189
4806	5.3492
4807	5.7834
4808	4.1891
4809	4.29
4810	5.4835
4811	4.2063
4812	4.3273
4813	4.8387
4814	4.6486
4815	4.3989
4816	5.1142
4817	5.3192
4818	1.1427
4819	1.0818
4820	1.1071
4821	1.2996
4822	1.1553
4823	1.3431
4824	1.2286
4825	1.705
4826	1.5701
4827	1.4652
4828	1.8445
4829	1.3232
4830	1.3906
4831	1.4254
4832	1.5762
4833	1.5426
4834	1.6471
4835	1.5608
4836	1.6699
4837	1.4474
4838	0.91819
4839	1.2101
4840	0.99272
4841	1.1113
4842	1.4241
4843	1.5786
4844	1.416
4845	1.5399
4846	1.6187
4847	1.5666
4848	1.4586
4849	1.6474
4850	1.3812
4851	1.1269
4852	1.1786
4853	1.0337
4854	1.8331
4855	1.9165
4856	2.1428
4857	2.2992
4858	2.3405
4859	1.789
4860	1.9965
4861	1.4701
4862	1.485
4863	1.4417
4864	1.4566
4865	1.7437
4866	1.6227
4867	1.5838
4868	2.1886
4869	2.3828
4870	2.4892
4871	2.4353
4872	1.8133
4873	0.82616
4874	0.93806
4875	0.91599
4876	0.7911
4877	0.95543
4878	1.1167
4879	1.1475
4880	0.80719
4881	1.1556
4882	2.1028
4883	2.0081
4884	1.826
4885	1.8231
4886	2.3428
4887	2.1612
4888	1.5877
4889	1.6723
4890	2.3725
4891	1.3486
4892	1.1998
4893	2.3166
4894	1.955
4895	2.9209
4896	3.4608
4897	3.7079
4898	3.2136
4899	2.5999
4900	3.5072
4901	2.9736
4902	3.1684
4903	2.8808
4904	2.7613
4905	3.7737
4906	4.2533
4907	2.2841
4908	3.0413
4909	2.1046
4910	3.5942
4911	2.4045
4912	0.28178
4913	0.23257
4914	0.22014
4915	0.36897
4916	0.36236
4917	0.36258
4918	0.31362
4919	0.34421
4920	0.30329
4921	0.24188
4922	0.21164
4923	0.25472
4924	0.32915
4925	0.35323
4926	0.35061
4927	0.28405
4928	0.33524
4929	0.28211
4930	0.28437
4931	0.36053
4932	0.85002
4933	0.86604
4934	0.91021
4935	0.93417
4936	0.82613
4937	0.87344
4938	0.7365
4939	0.80925
4940	0.92628
4941	0.95062
4942	0.71294
4943	0.8824
4944	0.93211
4945	0.84258
4946	0.70432
4947	0.776
4948	0.84903
4949	0.92419
4950	0.91682
4951	0.88661
4952	0.55186
4953	0.72692
4954	0.90848
4955	0.85165
4956	0.81258
4957	0.66716
4958	0.74059
4959	0.81454
4960	0.75516
4961	0.86863
4962	0.90254
4963	0.77009
4964	0.77824
4965	0.616
4966	0.78691
4967	0.81229
4968	0.76182
4969	0.67341
4970	0.86639
4971	0.88499
4972	0.57933
4973	0.62342
4974	0.7207
4975	0.84618
4976	0.93768
4977	1.5984
4978	1.2381
4979	1.7706
4980	1.639
4981	1.5924
4982	1.791
4983	1.1078
4984	0.58766
4985	0.68671
4986	1.2101
4987	0.9918
4988	1.4491
4989	1.2856
4990	1.7338
4991	1.1002
4992	0.71803
4993	0.96962
4994	0.96973
4995	0.84679
4996	1.7825
4997	1.7015
4998	2.01
4999	1.9198
5000	1.3564
5001	1.4764
5002	1.5615
5003	1.8347
5004	1.477
5005	1.6441
5006	2.0177
5007	1.9678
5008	1.3986
5009	1.5571
5010	1.6239
5011	1.773
5012	1.7108
5013	1.3112
5014	1.4189
5015	1.2916
5016	1.2894
5017	1.222
5018	1.4933
5019	1.5175
5020	1.23
5021	1.4161
5022	0.9332
5023	0.9068
5024	0.77081
5025	0.80128
5026	1.3953
5027	1.3687
5028	1.1513
5029	1.1401
5030	0.93894
5031	0.96803
5032	0.85703
5033	1.1285
5034	1.0158
5035	1.0157
5036	1.146
5037	0.87938
5038	1.6156
5039	1.7367
5040	1.5069
5041	1.656
5042	1.5423
5043	1.5906
5044	1.5187
5045	1.5917
5046	1.4936
5047	0.99774
5048	1.0843
5049	1.3778
5050	1.2669
5051	1.0988
5052	1.1912
5053	1.2126
5054	1.3192
5055	0.9192
5056	0.75042
5057	0.83161
5058	1.0375
5059	1.5131
5060	1.6849
5061	1.7036
5062	1.5371
5063	0.98569
5064	1.0925
5065	1.1523
5066	1.5282
5067	1.2243
5068	1.639
5069	1.7969
5070	1.2244
5071	1.4355
5072	1.575
5073	1.7211
5074	1.7769
5075	2.353
5076	1.9292
5077	1.7462
5078	1.5507
5079	1.7175
5080	1.4503
5081	2.1136
5082	1.8558
5083	2.5372
5084	1.8049
5085	2.0655
5086	2.2058
5087	1.8238
5088	1.7774
5089	1.895
5090	1.8932
5091	3.6497
5092	3.0384
5093	3.028
5094	3.5683
5095	2.7517
5096	3.0699
5097	2.7165
5098	2.8223
5099	2.6698
5100	2.9341
5101	2.3866
5102	2.3731
5103	2.573
5104	2.2678
5105	2.069
5106	2.3729
5107	2.2037
5108	2.2717
5109	2.5794
5110	1.9402
5111	1.9902
5112	1.8737
5113	1.7323
5114	1.1734
5115	1.1927
5116	1.9887
5117	1.7076
5118	0.87921
5119	1.0276
5120	1.0264
5121	1.9797
5122	1.9842
5123	1.2172
5124	1.4891
5125	1.4939
5126	4.6273
5127	4.4979
5128	4.4281
5129	4.4243
5130	5.5305
5131	5.2708
5132	3.7557
5133	3.8173
5134	3.7325
5135	4.1649
5136	4.1178
5137	4.6084
5138	5.9543
5139	5.8905
5140	5.4748
5141	4.8488
5142	4.5582
5143	4.1522
5144	4.8858
5145	0.61817
5146	0.69418
5147	0.61818
5148	0.61957
5149	0.69727
5150	0.64467
5151	0.75927
5152	0.78187
5153	0.64895
5154	0.66261
5155	0.71418
5156	0.75265
5157	0.76635
5158	0.69806
5159	0.74092
5160	0.76467
5161	0.94326
5162	0.99498
5163	1.0045
5164	0.96984
5165	1.2997
5166	1.6188
5167	1.4219
5168	1.6778
5169	1.3272
5170	1.1138
5171	0.9716
5172	0.98898
5173	1.0491
5174	0.88174
5175	0.81754
5176	0.97539
5177	0.85821
5178	0.93917
5179	2.4404
5180	2.6693
5181	1.032
5182	1.42
5183	1.2859
5184	1.5296
5185	0.8227
5186	0.93811
5187	2.0323
5188	2.2195
5189	1.9414
5190	1.8776
5191	2.586
5192	1.0114
5193	2.0756
5194	10.72
5195	10.912
5196	10.464
5197	10.66
5198	10.628
5199	10.404
5200	10.786
5201	10.568
5202	10.461
5203	10.207
5204	10.34
5205	10.786
5206	10.566
5207	10.66
5208	10.93
5209	10.459
5210	10.155
5211	10.457
5212	10.214
5213	0.77815
5214	0.75724
5215	0.62969
5216	0.67355
5217	0.70957
5218	0.77194
5219	0.62377
5220	3.4028
5221	2.3216
5222	2.7376
5223	3.4541
5224	2.4111
5225	2.364
5226	2.6016
5227	3.1148
5228	2.7947
5229	2.8062
5230	2.9574
5231	3.2996
5232	2.294
5233	3.1966
5234	2.1538
5235	2.185
5236	2.4346
5237	2.8103
5238	5.3386
5239	5.0621
5240	6.1861
5241	5.4177
5242	4.0204
5243	5.9587
5244	5.3908
5245	4.1722
5246	6.1498
5247	5.4567
5248	6.2435
5249	7.0213
5250	4.6874
5251	4.1209
5252	3.6498
5253	4.0128
5254	6.9599
5255	6.2517
5256	6.8988
5257	4.4408
5258	5.559
5259	5.3379
5260	5.519
5261	5.2084
5262	5.506
5263	4.4075
5264	4.4423
5265	4.373
5266	4.5906
5267	4.5057
5268	4.6899
5269	5.0277
5270	5.3322
5271	4.6072
5272	5.2392
5273	4.8272
5274	4.9391
5275	4.9383
5276	0.4539
5277	0.41442
5278	0.5475
5279	0.71255
5280	0.70484
5281	0.79291
5282	0.79053
5283	0.65483
5284	0.62585
5285	0.55977
5286	0.90676
5287	1.0316
5288	0.83704
5289	0.95034
5290	0.93909
5291	0.82582
5292	1.1168
5293	1.187
5294	1.1052
5295	1.1527
5296	0.74234
5297	0.76056
5298	1.1326
5299	0.79255
5300	0.78794
5301	1.1296
5302	0.82034
5303	0.93007
5304	0.75737
5305	0.87237
5306	1.0021
5307	1.5325
5308	1.3513
5309	1.6592
5310	1.5772
5311	1.4585
5312	1.4406
5313	1.6142
5314	1.6928
5315	1.4756
5316	1.3043
5317	1.3886
5318	1.2962
5319	1.2776
5320	1.5299
5321	1.2221
5322	1.1939
5323	1.4922
5324	1.3189
5325	4.1887
5326	3.6244
5327	4.8153
5328	4.0923
5329	3.4458
5330	5.5469
5331	4.9592
5332	5.7962
5333	5.1089
5334	4.702
5335	5.2057
5336	5.5453
5337	5.0202
5338	4.1391
5339	4.0207
5340	3.5579
5341	3.8441
5342	4.4362
5343	5.8674
5344	5.9416
5345	5.2034
5346	4.7568
5347	4.1439
5348	4.7419
5349	5.4939
5350	3.8877
5351	16.406
5352	16.793
5353	13.504
5354	13.648
5355	16.726
5356	13.65
5357	14.878
5358	15.133
5359	14.281
5360	15.135
5361	15.985
5362	15.816
5363	15.814
5364	16.588
5365	14.879
5366	16.514
5367	2.5598
5368	3.4317
5369	3.2445
5370	2.6578
5371	2.6346
5372	3.4992
5373	3.3353
5374	2.7755
5375	2.7791
5376	3.2618
5377	2.6481
5378	3.2141
5379	3.3207
5380	2.6514
5381	3.2746
5382	4.7553
5383	5.0217
5384	5.1992
5385	5.0216
5386	5.1979
5387	5.5361
5388	6.701
5389	6.7019
5390	6.404
5391	5.5383
5392	5.7791
5393	6.4043
5394	6.3683
5395	5.8516
5396	5.8597
5397	5.6826
5398	6.4409
5399	5.8515
5400	6.0742
5401	5.8609
5402	5.6826
5403	2.3434
5404	2.9061
5405	2.0687
5406	2.3725
5407	1.7168
5408	1.3554
5409	2.2046
5410	1.4474
5411	0.96322
5412	2.478
5413	3.0262
5414	0.56402
5415	0.59593
5416	1.1581
5417	1.8103
5418	2.5213
5419	3.1592
5420	0.69448
5421	0.57584
5422	1.3976
5423	0.95871
5424	2.1622
5425	2.1972
5426	6.3073
5427	5.9158
5428	5.3997
5429	5.5986
5430	5.6604
5431	5.8675
5432	5.8443
5433	5.9965
5434	4.5684
5435	4.9589
5436	4.752
5437	4.7953
5438	5.2988
5439	3.9678
5440	3.6436
5441	4.4477
5442	4.7807
5443	3.9876
5444	3.643
5445	4.076
5446	1.5302
5447	1.4905
5448	2.127
5449	2.5174
5450	1.9608
5451	2.2113
5452	1.7741
5453	1.9009
5454	1.4691
5455	1.3481
5456	1.9332
5457	1.8892
5458	2.0283
5459	2.3818
5460	1.5511
5461	1.455
5462	1.9571
5463	2.1713
5464	2.1792
5465	1.5396
5466	2.2358
5467	1.9231
5468	2.4078
5469	2.2093
5470	0.33616
5471	0.17078
5472	0.45784
5473	0.40614
5474	0.37041
5475	0.29706
5476	0.19213
5477	0.35208
5478	0.28192
5479	0.18745
5480	0.53445
5481	0.48544
5482	0.25098
5483	0.30546
5484	0.39112
5485	0.31625
5486	0.39588
5487	0.46273
5488	13.056
5489	13.338
5490	13.081
5491	12.804
5492	12.582
5493	12.793
5494	12.257
5495	12.271
5496	13.284
5497	13.05
5498	12.819
5499	12.761
5500	12.973
5501	12.413
5502	12.643
5503	12.321
5504	13.044
5505	12.589
5506	12.802
5507	12.711
5508	13.198
5509	12.977
5510	2.5808
5511	2.0609
5512	2.643
5513	2.0611
5514	1.6434
5515	2.04
5516	1.8744
5517	1.6355
5518	1.751
5519	1.7811
5520	1.821
5521	1.5638
5522	1.46
5523	1.5051
5524	1.4605
5525	1.1236
5526	1.2237
5527	1.158
5528	1.44
5529	0.8011
5530	0.93092
5531	0.93723
5532	0.73421
5533	0.73662
5534	0.89533
5535	0.91481
5536	0.7656
5537	0.68556
5538	0.98203
5539	0.9939
5540	0.84423
5541	0.95044
5542	0.94977
5543	0.94784
5544	0.87446
5545	0.70773
5546	0.78812
5547	0.84971
5548	0.88856
5549	6.5641
5550	6.4083
5551	5.8168
5552	6.4012
5553	6.1165
5554	5.8122
5555	6.1072
5556	6.1441
5557	6.0048
5558	6.0143
5559	5.9799
5560	6.1511
5561	1.3693
5562	1.3486
5563	1.1665
5564	1.3067
5565	1.091
5566	0.96561
5567	0.84419
5568	1.2544
5569	0.86563
5570	0.61728
5571	0.49782
5572	1.0212
5573	1.198
5574	0.74316
5575	0.70331
5576	0.57366
5577	1.2931
5578	0.78448
5579	0.58791
5580	0.67082
5581	0.71075
5582	0.90125
5583	1.2547
5584	0.47218
5585	0.67529
5586	0.60379
5587	2.1252
5588	2.8357
5589	3.5901
5590	2.2133
5591	3.0227
5592	3.2222
5593	1.7668
5594	1.8509
5595	2.1964
5596	2.4158
5597	2.1147
5598	2.9054
5599	2.5718
5600	2.2314
5601	2.9516
5602	2.1997
5603	2.3785
5604	2.3283
5605	2.0744
5606	1.8377
5607	0.62361
5608	0.65098
5609	0.6635
5610	0.69421
5611	0.71525
5612	0.76227
5613	1.1076
5614	1.1945
5615	0.89386
5616	0.75059
5617	0.80106
5618	0.85459
5619	0.91927
5620	1.0708
5621	0.91405
5622	1.6443
5623	1.6107
5624	1.5762
5625	1.5986
5626	1.5279
5627	1.4291
5628	1.4704
5629	1.3225
5630	1.3194
5631	1.2382
5632	1.1784
5633	1.1027
5634	1.1473
5635	1.067
5636	1.2565
5637	1.2359
5638	6.4198
5639	5.4486
5640	7.5084
5641	5.3791
5642	6.4231
5643	9.0451
5644	9.0133
5645	7.5096
5646	5.4266
5647	4.9445
5648	6.5716
5649	6.0812
5650	7.39
5651	9.163
5652	6.3981
5653	6.3961
5654	5.2371
5655	5.0148
5656	6.6968
5657	6.2037
5658	7.8377
5659	5.1618
5660	7.5109
5661	1.0587
5662	1.057
5663	0.89513
5664	0.97544
5665	1.0893
5666	1.1024
5667	0.94629
5668	1.0466
5669	0.89394
5670	0.98865
5671	0.91902
5672	0.83752
5673	1.048
5674	0.84558
5675	0.92428
5676	1.0174
5677	0.91857
5678	1.0255
5679	2.4482
5680	1.9566
5681	1.9207
5682	1.2902
5683	1.2692
5684	3.0138
5685	1.3703
5686	1.3927
5687	2.2394
5688	1.2124
5689	1.1916
5690	1.4127
5691	1.4105
5692	1.5309
5693	1.9175
5694	0.10758
5695	0.15117
5696	0.20059
5697	0.14654
5698	0.17449
5699	0.10655
5700	0.28135
5701	0.30255
5702	0.2492
5703	0.23171
5704	0.26682
5705	0.26508
5706	0.25708
5707	0.2475
5708	0.21137
5709	0.14764
5710	0.24462
5711	0.26274
5712	0.20264
5713	3.5942
5714	3.242
5715	3.2352
5716	3.8916
5717	3.4741
5718	3.286
5719	3.7958
5720	3.5412
5721	3.5391
5722	4.1674
5723	4.2901
5724	4.5144
5725	3.888
5726	3.954
5727	0.34354
5728	0.39481
5729	0.29707
5730	0.35045
5731	0.24495
5732	0.30107
5733	0.30798
5734	0.28262
5735	0.39952
5736	0.24181
5737	0.23987
5738	0.22157
5739	0.2818
5740	0.23977
5741	0.36482
5742	0.35666
5743	0.32286
5744	0.34967
5745	0.23474
5746	0.28022
5747	0.37924
5748	0.72336
5749	0.80911
5750	0.64887
5751	0.55028
5752	0.90317
5753	0.98783
5754	0.97021
5755	1.0546
5756	0.74821
5757	0.69358
5758	0.60909
5759	0.7719
5760	0.90979
5761	0.89864
5762	0.92938
5763	2.3898
5764	2.3407
5765	2.3543
5766	2.6686
5767	3.1678
5768	2.8632
5769	2.4253
5770	2.3773
5771	3.7639
5772	3.287
5773	2.6488
5774	2.8206
5775	2.9678
5776	3.3731
5777	2.4158
5778	2.3369
5779	0.91302
5780	1.1899
5781	1.3515
5782	1.0944
5783	1.4452
5784	0.86783
5785	1.1273
5786	0.27465
5787	0.26898
5788	0.46554
5789	0.56819
5790	1.0598
5791	1.1707
5792	0.76453
5793	1.2378
5794	0.40586
5795	0.42522
5796	0.97686
5797	0.692
5798	0.48667
5799	0.65891
5800	1.6597
5801	1.7353
5802	2.0809
5803	1.7704
5804	2.04
5805	2.3422
5806	2.2658
5807	2.3304
5808	2.7501
5809	1.9226
5810	2.3117
5811	2.9381
5812	2.1984
5813	2.7397
5814	2.7142
5815	3.1246
5816	1.7921
5817	2.0423
5818	2.6769
5819	3.0115
5820	2.3138
5821	1.9801
5822	2.2715
5823	2.0443
5824	1.8995
5825	1.7377
5826	2.1065
5827	1.7951
5828	1.993
5829	1.9814
5830	0.90408
5831	0.85753
5832	0.81165
5833	0.96415
5834	0.94819
5835	0.91915
5836	0.86822
5837	0.81541
5838	0.77295
5839	0.65656
5840	0.75349
5841	0.78193
5842	0.70512
5843	0.84464
5844	0.78634
5845	0.68208
5846	0.6916
5847	0.76863
5848	0.67808
5849	0.60208
5850	0.67991
5851	0.60534
5852	0.70869
5853	0.39405
5854	0.3891
5855	0.66713
5856	0.72126
5857	0.57254
5858	0.58015
5859	0.44647
5860	0.42134
5861	0.41014
5862	0.43825
5863	0.65992
5864	0.49859
5865	0.50082
5866	0.46385
5867	0.51884
5868	2.4514
5869	2.9992
5870	1.8049
5871	2.3593
5872	1.5471
5873	2.0333
5874	2.3603
5875	2.9738
5876	2.0994
5877	2.9572
5878	3.0633
5879	2.254
5880	2.0667
5881	1.4707
5882	1.608
5883	2.8716
5884	3.5428
5885	2.8116
5886	3.2089
5887	2.3791
5888	2.8599
5889	1.8771
5890	2.0837
5891	1.804
5892	3.5892
5893	3.3507
5894	4.5327
5895	3.437
5896	4.2742
5897	2.8028
5898	2.5358
5899	4.6844
5900	2.5887
5901	4.6192
5902	1.8654
5903	1.9505
5904	1.9368
5905	1.8273
5906	1.8783
5907	1.9102
5908	1.7957
5909	2.0741
5910	2.8917
5911	3.2977
5912	3.3493
5913	2.2083
5914	2.1545
5915	2.4671
5916	2.7315
5917	2.3563
5918	2.2371
5919	0.45238
5920	0.45454
5921	0.57038
5922	0.65737
5923	0.49097
5924	0.42212
5925	0.69316
5926	0.65782
5927	0.58389
5928	0.57149
5929	0.6956
5930	0.72941
5931	0.72177
5932	0.77634
5933	2.7419
5934	2.7116
5935	2.6322
5936	2.6096
5937	2.3711
5938	2.7074
5939	2.8922
5940	3.1718
5941	3.0986
5942	3.622
5943	3.7437
5944	2.5548
5945	2.6613
5946	3.5853
5947	3.7386
5948	3.4019
5949	3.0609
5950	2.7345
5951	3.0294
5952	3.5578
5953	3.2911
5954	0.94332
5955	0.63839
5956	0.68105
5957	0.47624
5958	0.42893
5959	0.546
5960	0.5283
5961	0.48632
5962	1.0067
5963	0.95813
5964	0.91349
5965	0.72275
5966	0.63849
5967	0.57767
5968	0.83554
5969	0.67097
5970	0.69335
5971	5.7121
5972	5.9272
5973	6.1092
5974	5.9069
5975	5.9535
5976	5.7116
5977	5.9537
5978	5.9062
5979	5.7062
5980	4.9973
5981	5.142
5982	5.1424
5983	5.7587
5984	5.0007
5985	5.2401
5986	4.9382
5987	5.3144
5988	4.9384
5989	5.7591
5990	5.3158
5991	1.1783
5992	1.2673
5993	1.3657
5994	1.3955
5995	1.2111
5996	1.2046
5997	1.3006
5998	1.055
5999	1.0692
6000	1.1514
6001	1.1446
6002	1.2629
6003	0.99375
6004	1.0114
6005	1.1459
6006	1.1144
6007	9.7996
6008	9.4949
6009	10.135
6010	9.8402
6011	10.024
6012	9.6449
6013	9.6458
6014	9.2624
6015	10.646
6016	10.769
6017	10.134
6018	9.8389
6019	9.4254
6020	10.195
6021	10.471
6022	10.594
6023	10.016
6024	10.016
6025	10.767
6026	9.2159
6027	9.7139
6028	10.19
6029	9.2842
6030	9.7123
6031	1.9626
6032	2.4258
6033	2.2812
6034	2.7643
6035	1.7136
6036	1.5795
6037	1.7214
6038	1.8567
6039	2.2897
6040	2.9062
6041	3.0901
6042	2.0086
6043	2.4374
6044	2.5562
6045	2.7274
6046	3.1093
6047	2.9249
6048	2.6828
6049	2.9927
6050	1.2897
6051	1.091
6052	1.1921
6053	1.2898
6054	1.029
6055	1.2727
6056	0.79739
6057	0.71406
6058	1.0536
6059	1.1415
6060	1.0737
6061	0.52678
6062	0.29594
6063	0.37963
6064	0.72822
6065	0.78063
6066	0.62111
6067	0.44143
6068	0.73998
6069	1.0094
6070	0.99919
6071	0.66498
6072	0.48517
6073	1.0554
6074	0.81467
6075	1.7635
6076	1.8672
6077	1.2733
6078	1.2387
6079	2.8372
6080	2.626
6081	3.2982
6082	1.5748
6083	1.7346
6084	3.4307
6085	4.3775
6086	4.48
6087	3.6417
6088	1.3956
6089	2.4217
6090	1.8177
6091	2.3928
6092	1.983
6093	2.4853
6094	1.655
6095	2.045
6096	1.8745
6097	2.1119
6098	1.4374
6099	1.4804
6100	2.7887
6101	2.4557
6102	1.0839
6103	1.2327
6104	2.6271
6105	2.1415
6106	2.7858
6107	2.4021
6108	1.4282
6109	1.9344
6110	1.6028
6111	1.0891
6112	1.3834
6113	0.32251
6114	0.37574
6115	0.33808
6116	0.29972
6117	0.20982
6118	0.21965
6119	0.27338
6120	0.33132
6121	0.14703
6122	0.13862
6123	0.33829
6124	0.25909
6125	0.19487
6126	0.20609
6127	0.27303
6128	0.16701
6129	0.26866
6130	3.6486
6131	3.2723
6132	3.055
6133	2.718
6134	3.036
6135	2.8047
6136	3.5016
6137	3.8182
6138	2.4481
6139	2.7374
6140	2.5676
6141	3.4033
6142	3.0984
6143	3.0942
6144	3.2305
6145	3.5255
6146	3.2743
6147	3.7154
6148	8.232
6149	8.8528
6150	9.2812
6151	9.3975
6152	8.4724
6153	8.8202
6154	8.8871
6155	7.9569
6156	7.8809
6157	7.645
6158	8.2699
6159	0.27123
6160	0.1867
6161	0.18216
6162	0.29022
6163	0.28324
6164	0.1267
6165	0.20803
6166	0.49107
6167	0.46105
6168	0.48216
6169	0.60609
6170	0.64452
6171	0.64822
6172	0.62148
6173	0.4032
6174	0.39925
6175	0.31753
6176	0.63093
6177	0.26575
6178	0.38669
6179	0.47215
6180	3.5218
6181	3.2453
6182	2.3868
6183	3.0667
6184	2.3421
6185	4.1057
6186	4.4887
6187	2.2087
6188	2.0762
6189	2.2881
6190	2.9124
6191	2.0956
6192	1.9544
6193	2.4062
6194	3.2759
6195	4.1906
6196	4.6147
6197	3.0225
6198	3.6777
6199	0.96347
6200	0.97901
6201	1.1315
6202	1.198
6203	1.6009
6204	1.5306
6205	1.095
6206	1.1021
6207	1.1395
6208	0.98698
6209	1.0757
6210	1.2374
6211	0.52628
6212	0.59526
6213	0.43031
6214	0.43242
6215	0.3319
6216	0.64051
6217	0.66902
6218	0.4934
6219	0.3861
6220	0.55499
6221	0.56543
6222	0.59051
6223	0.43778
6224	0.38912
6225	0.52213
6226	0.47021
6227	0.2401
6228	0.19977
6229	0.2596
6230	0.27006
6231	0.56431
6232	0.35708
6233	0.32154
6234	0.30338
6235	0.3261
6236	0.40156
6237	0.46546
6238	0.49952
6239	0.44422
6240	0.46205
6241	0.50811
6242	0.31922
6243	0.33529
6244	0.2436
6245	0.26167
6246	11.185
6247	11.176
6248	10.722
6249	10.542
6250	10.825
6251	10.545
6252	10.751
6253	11.177
6254	10.474
6255	10.545
6256	10.266
6257	10.551
6258	10.751
6259	10.335
6260	10.263
6261	10.554
6262	11.065
6263	11.085
6264	10.713
6265	11.085
6266	10.456
6267	10.673
6268	10.457
6269	10.641
6270	10.416
6271	10.798
6272	10.577
6273	11.065
6274	11.066
6275	10.675
6276	10.201
6277	10.351
6278	10.796
6279	10.577
6280	10.47
6281	10.47
6282	10.169
6283	10.228
6284	1.1991
6285	1.2244
6286	1.0681
6287	1.0856
6288	1.2804
6289	1.3082
6290	1.3563
6291	1.4504
6292	1.3633
6293	1.4479
6294	1.0293
6295	1.3287
6296	1.3967
6297	1.3682
6298	1.1787
6299	1.0211
6300	1.3616
6301	2.4964
6302	2.0456
6303	3.3992
6304	1.9508
6305	2.6574
6306	2.7247
6307	3.9897
6308	1.6808
6309	2.438
6310	4.2692
6311	3.1464
6312	0.79166
6313	0.78552
6314	0.86204
6315	0.76412
6316	0.87821
6317	1.0145
6318	0.85572
6319	0.95694
6320	1.0048
6321	0.90598
6322	1.056
6323	1.0324
6324	18.795
6325	17.843
6326	18.143
6327	18.964
6328	15.248
6329	17.198
6330	18.039
6331	17.864
6332	15.643
6333	19.272
6334	18.441
6335	17.198
6336	18.038
6337	19.023
6338	18.46
6339	15.262
6340	19.178
6341	17.32
6342	17.32
6343	7.3465
6344	8.4453
6345	8.2919
6346	9.6729
6347	9.862
6348	11.381
6349	11.275
6350	9.4434
6351	9.4396
6352	12.075
6353	12.948
6354	13.095
6355	11.861
6356	10.567
6357	13.024
6358	13.061
6359	12.283
6360	3.0064
6361	3.1498
6362	2.5774
6363	2.536
6364	2.088
6365	2.2169
6366	2.1894
6367	2.9504
6368	3.6774
6369	2.2793
6370	2.9715
6371	2.8603
6372	3.4478
6373	3.0477
6374	2.9505
6375	1.9706
6376	2.079
6377	2.368
6378	2.1949
6379	2.2231
6380	3.3428
6381	3.4566
6382	3.4044
6383	2.4143
6384	2.3044
6385	2.8123
6386	3.3425
6387	3.3415
6388	2.4273
6389	3.3415
6390	3.0116
6391	3.0221
6392	2.4049
6393	2.2455
6394	2.5957
6395	2.1375
6396	2.1215
6397	2.9257
6398	2.8373
6399	2.3507
6400	2.2103
6401	2.5755
6402	2.0768
6403	1.4694
6404	1.7199
6405	2.4753
6406	2.6901
6407	1.9705
6408	2.3696
6409	2.1953
6410	2.4118
6411	1.8131
6412	2.462
6413	1.9522
6414	1.6997
6415	1.49
6416	2.6564
6417	2.223
6418	2.6773
6419	2.8632
6420	0.81043
6421	0.69447
6422	0.98129
6423	0.83073
6424	0.45724
6425	0.47574
6426	0.84944
6427	0.73266
6428	0.45311
6429	0.44178
6430	0.62964
6431	0.65061
6432	0.80368
6433	0.55368
6434	0.47519
6435	0.51409
6436	0.62128
6437	2.4913
6438	2.911
6439	2.4404
6440	2.4326
6441	2.7389
6442	2.9251
6443	3.1939
6444	2.4426
6445	2.3391
6446	2.8027
6447	2.2264
6448	2.2001
6449	2.2088
6450	2.1558
6451	2.7322
6452	2.372
6453	2.4683
6454	2.0123
6455	2.5996
6456	1.8112
6457	1.0753
6458	2.6955
6459	2.3125
6460	2.1691
6461	1.7405
6462	2.5727
6463	2.223
6464	1.2645
6465	1.1591
6466	2.6049
6467	2.7063
6468	2.4156
6469	1.276
6470	2.0626
6471	1.0237
6472	1.0305
6473	1.1491
6474	1.5143
6475	1.4282
6476	1.7728
6477	1.7229
6478	1.0301
6479	1.086
6480	1.5609
6481	1.7546
6482	1.8687
6483	1.6354
6484	1.2864
6485	1.5975
6486	1.7651
6487	1.2994
6488	1.1952
6489	1.3951
6490	1.5133
6491	3.3684
6492	3.9264
6493	4.1617
6494	4.6524
6495	4.0735
6496	4.8498
6497	4.4092
6498	3.8179
6499	4.2717
6500	3.4335
6501	3.6728
6502	5.1386
6503	5.0759
6504	4.6592
6505	4.2771
6506	4.4515
6507	4.7455
6508	4.5407
6509	4.9002
6510	5.3108
6511	5.4834
6512	5.6754
6513	2.4134
6514	2.463
6515	2.57
6516	2.0879
6517	2.3145
6518	2.6001
6519	2.1846
6520	1.7173
6521	1.4302
6522	2.5232
6523	2.3958
6524	1.9963
6525	1.5967
6526	0.77377
6527	0.85905
6528	0.92247
6529	0.89971
6530	1.1276
6531	1.1849
6532	0.87158
6533	0.86457
6534	0.97058
6535	1.131
6536	1.0246
6537	1.2357
6538	0.99655
6539	1.0247
6540	0.99124
6541	0.99381
6542	0.9793
6543	1.1181
6544	1.0774
6545	1.0132
6546	1.0641
6547	1.0233
6548	1.4858
6549	1.4222
6550	1.5852
6551	1.4939
6552	1.6002
6553	1.643
6554	1.5782
6555	1.674
6556	1.3986
6557	1.495
6558	1.64
6559	1.1077
6560	0.94876
6561	1.1096
6562	0.96679
6563	1.1261
6564	0.98369
6565	1.3461
6566	1.5944
6567	1.4723
6568	1.1911
6569	0.35478
6570	0.22786
6571	0.2672
6572	6.5266e-002
6573	5.7382e-002
6574	5.2343e-002
6575	3.7558
6576	4.1535
6577	4.1853
6578	5.2809
6579	4.6802
6580	4.2613
6581	3.5994
6582	3.5289
6583	4.4564
6584	5.1478
6585	8.3232
6586	4.6487
6587	4.7949
6588	6.3489
6589	4.8973
6590	4.6903
6591	4.8985
6592	4.6922
6593	4.1934
6594	3.8601
6595	4.1395
6596	3.6277
6597	3.967
6598	4.1928
6599	3.8621
6600	3.4543
6601	3.6
6602	3.7729
6603	3.7753
6604	4.2194
6605	4.1399
6606	4.2207
6607	3.9737
6608	3.4995
6609	1.5825
6610	1.7203
6611	2.0233
6612	1.9123
6613	1.8015
6614	1.7017
6615	1.634
6616	1.7448
6617	2.4233
6618	2.5131
6619	1.8179
6620	1.7298
6621	1.8946
6622	1.8145
6623	2.1342
6624	2.4963
6625	2.9593
6626	2.9596
6627	1.7502
6628	1.7907
6629	2.2722
6630	1.8317
6631	2.0192
6632	2.2416
6633	2.3616
6634	2.567
6635	2.58
6636	7.0065
6637	6.7678
6638	7.0063
6639	6.7676
6640	4.9982
6641	5.2373
6642	4.9984
6643	5.2363
6644	6.7822
6645	6.5479
6646	6.7822
6647	6.548
6648	6.0748
6649	5.8874
6650	5.2901
6651	5.5209
6652	5.5382
6653	6.0082
6654	6.0756
6655	5.9271
6656	5.2918
6657	5.5206
6658	6.1085
6659	6.0079
6660	6.1085
6661	5.926
6662	1.9659
6663	2.0142
6664	1.7731
6665	1.3408
6666	1.6635
6667	2.2398
6668	2.6731
6669	1.9161
6670	2.2468
6671	2.4917
6672	2.5024
6673	2.4202
6674	4.2459
6675	3.5653
6676	4.7946
6677	2.5911
6678	3.5463
6679	4.2452
6680	2.9279
6681	3.6149
6682	3.1499
6683	3.8662
6684	4.7592
6685	2.3774
6686	3.1981
6687	2.6301
6688	3.9832
6689	3.203
6690	4.8156
6691	2.0392
6692	2.0559
6693	2.206
6694	2.2809
6695	1.8707
6696	1.8452
6697	1.8838
6698	1.9048
6699	2.0035
6700	2.2505
6701	2.0299
6702	2.0395
6703	1.8687
6704	1.8863
6705	1.9003
6706	2.2209
6707	2.1919
6708	2.2941
6709	2.1558
6710	2.1406
6711	2.2534
6712	2.1209
6713	5.8274
6714	5.9955
6715	5.8172
6716	5.9417
6717	5.0248
6718	5.0276
6719	4.0308
6720	3.6115
6721	5.2171
6722	5.5746
6723	4.891
6724	5.2213
6725	4.4167
6726	4.2164
6727	3.9009
6728	3.5513
6729	4.4123
6730	5.0966
6731	4.6203
6732	4.6887
6733	4.0083
6734	4.5424
6735	3.7718
6736	4.1156
6737	0.49672
6738	0.53236
6739	0.50236
6740	0.46958
6741	0.57861
6742	0.60271
6743	0.63946
6744	0.67732
6745	0.58748
6746	0.52924
6747	0.52722
6748	0.64017
6749	0.55862
6750	1.188
6751	1.0304
6752	1.894
6753	1.7354
6754	2.4007
6755	2.0395
6756	1.6465
6757	2.0142
6758	2.1245
6759	1.493
6760	2.2491
6761	2.3028
6762	2.048
6763	2.444
6764	2.2336
6765	2.6278
6766	2.489
6767	1.0409
6768	1.0221
6769	0.89485
6770	0.853
6771	1.1731
6772	1.4495
6773	1.4178
6774	1.2465
6775	1.2034
6776	1.5548
6777	1.5201
6778	0.84238
6779	1.2221
6780	1.3669
6781	1.4092
6782	0.98584
6783	1.1149
6784	0.99261
6785	0.71123
6786	0.21093
6787	0.43163
6788	0.71333
6789	0.74294
6790	0.25927
6791	0.2344
6792	0.25624
6793	1.0159
6794	0.89467
6795	0.58749
6796	1.087
6797	0.59728
6798	1.0235
6799	1.5508
6800	0.89564
6801	0.95171
6802	1.2215
6803	1.0212
6804	1.0919
6805	1.3002
6806	0.97851
6807	0.99582
6808	1.1594
6809	1.2121
6810	1.037
6811	0.94633
6812	0.97029
6813	0.96701
6814	0.94273
6815	1.3913
6816	1.0401
6817	1.0815
6818	1.0087
6819	1.1068
6820	1.0778
6821	0.66449
6822	0.69893
6823	0.71609
6824	0.66164
6825	0.62345
6826	0.67694
6827	0.60796
6828	0.62749
6829	0.68264
6830	0.87665
6831	0.86957
6832	2.9602
6833	2.6266
6834	3.8229
6835	3.3589
6836	2.6863
6837	3.0959
6838	4.3862
6839	4.1305
6840	2.6875
6841	3.0914
6842	4.1258
6843	4.1147
6844	3.2572
6845	3.5973
6846	3.5015
6847	3.5049
6848	3.2573
6849	4.1197
6850	3.9674
6851	3.9343
6852	3.9594
6853	3.922
6854	3.8569
6855	4.0445
6856	3.4487
6857	3.4359
6858	3.9736
6859	3.4705
6860	3.3118
6861	3.1324
6862	3.0151
6863	3.4062
6864	3.8189
6865	3.6065
6866	3.2697
6867	1.1319
6868	0.99407
6869	1.2121
6870	1.2856
6871	1.1173
6872	1.3665
6873	1.3574
6874	1.2567
6875	1.1719
6876	1.2538
6877	1.2217
6878	7.8115e-002
6879	0.10084
6880	7.6169e-002
6881	0.11349
6882	5.8791e-002
6883	4.128e-002
6884	4.3356e-002
6885	5.5833e-002
6886	8.7459e-002
6887	9.8282e-002
6888	4.5443e-002
6889	6.4958e-002
6890	5.1313e-002
6891	0.1265
6892	9.631e-002
6893	6.0914e-002
6894	6.2553e-002
6895	0.32925
6896	0.38015
6897	0.37101
6898	0.32795
6899	0.67037
6900	0.41212
6901	0.44918
6902	0.53163
6903	0.49431
6904	0.44768
6905	0.69133
6906	0.64769
6907	0.53122
6908	1.0972
6909	1.0655
6910	0.84428
6911	0.85032
6912	0.75591
6913	0.60514
6914	1.0428
6915	0.9619
6916	1.0004
6917	1.4439
6918	1.4801
6919	1.412
6920	1.3157
6921	0.73145
6922	0.72514
6923	1.0549
6924	1.3771
6925	0.78751
6926	0.66024
6927	0.85153
6928	1.0515
6929	0.85329
6930	0.75517
6931	6.142
6932	6.1416
6933	5.963
6934	5.7644
6935	5.9619
6936	6.6408
6937	6.6411
6938	6.8749
6939	6.6689
6940	7.1152
6941	6.8857
6942	7.1158
6943	6.8986
6944	6.2554
6945	6.2444
6946	6.8736
6947	6.656
6948	14.993
6949	13.764
6950	15.02
6951	16.774
6952	12.383
6953	13.611
6954	14.725
6955	16.777
6956	11.861
6957	12.922
6958	14.698
6959	11.275
6960	12.897
6961	12.348
6962	12.169
6963	12.443
6964	12.273
6965	12.109
6966	12.443
6967	12.275
6968	12.542
6969	12.439
6970	11.987
6971	12.105
6972	12.286
6973	11.986
6974	12.104
6975	12.368
6976	12.289
6977	11.939
6978	11.955
6979	12.095
6980	12.096
6981	11.941
6982	5.2724
6983	4.2885
6984	4.1522
6985	6.3136
6986	5.426
6987	6.368
6988	5.5116
6989	3.9311
6990	4.8115
6991	4.8244
6992	8.1775
6993	9.3132
6994	3.9737
6995	7.3264
6996	6.0949
6997	5.6636
6998	6.154
6999	8.4271
7000	8.0373
7001	5.3646
7002	0.3522
7003	0.40253
7004	0.44637
7005	0.4779
7006	0.42697
7007	0.42058
7008	0.45043
7009	0.47468
7010	0.3614
7011	0.46857
7012	0.50557
7013	0.53175
7014	0.44695
7015	0.45777
7016	2.4687
7017	2.4462
7018	2.3584
7019	2.3063
7020	2.3703
7021	2.3635
7022	2.0371
7023	2.1673
7024	2.1758
7025	2.1053
7026	2.1617
7027	2.0981
7028	2.0012
7029	2.3629
7030	2.2296
7031	2.153
7032	2.3017
7033	2.2388
7034	2.1384
7035	2.1599
7036	6.7223
7037	6.8318
7038	6.9398
7039	6.8353
7040	6.7122
7041	6.6084
7042	6.9281
7043	6.8189
7044	6.6834
7045	6.5043
7046	6.6214
7047	6.8167
7048	7.5295
7049	6.9706
7050	6.777
7051	7.0668
7052	5.5554
7053	6.2576
7054	7.2591
7055	5.9982
7056	5.3181
7057	6.5638
7058	5.8521
7059	7.4329
7060	6.4052
7061	7.7122
7062	7.7355
7063	7.0383
7064	6.3016
7065	6.4786
7066	5.779
7067	7.246
7068	5.1198
7069	4.702
7070	4.9773
7071	3.6762
7072	4.2448
7073	6.844
7074	5.9572
7075	7.4077
7076	4.0244
7077	3.9118
7078	4.4889
7079	6.3949
7080	4.2877
7081	5.7836
7082	1.1111
7083	0.99995
7084	1.7763
7085	2.1202
7086	1.4697
7087	1.8652
7088	1.953
7089	2.2463
7090	1.6188
7091	2.1091
7092	1.5868
7093	2.0471
7094	2.0831
7095	4.4603
7096	4.4851
7097	5.3282
7098	4.0154
7099	3.8957
7100	5.0018
7101	4.4556
7102	4.9007
7103	3.5149
7104	3.3192
7105	3.1417
7106	2.8612
7107	3.451
7108	3.283
7109	4.1114
7110	4.4947
7111	3.1736
7112	3.5737
7113	3.4648
7114	4.2742
7115	2.9677
7116	16.025
7117	16.263
7118	15.17
7119	15.414
7120	16.195
7121	15.168
7122	15.413
7123	14.32
7124	13.357
7125	13.298
7126	14.613
7127	13.406
7128	13.357
7129	15.318
7130	15.984
7131	14.798
7132	15.453
7133	14.612
7134	16.055
7135	14.801
7136	14.15
7137	15.318
7138	0.15202
7139	7.1567e-002
7140	0.19126
7141	0.10519
7142	8.0628e-002
7143	9.8784e-002
7144	0.13919
7145	0.14306
7146	7.4313e-002
7147	4.381e-002
7148	7.8352e-002
7149	7.0237e-002
7150	4.2387e-002
7151	5.9092e-002
7152	6.7624e-002
7153	7.0074e-002
7154	0.8877
7155	0.91183
7156	0.82792
7157	0.83992
7158	0.77625
7159	0.83325
7160	0.79062
7161	0.83476
7162	0.90719
7163	0.89736
7164	0.93106
7165	0.86983
7166	0.81719
7167	0.85619
7168	0.80535
7169	0.71348
7170	0.79147
7171	0.81245
7172	0.78156
7173	0.69736
7174	0.71697
7175	6.5099
7176	5.9465
7177	6.7836
7178	7.2777
7179	5.468
7180	5.1028
7181	5.9516
7182	6.8088
7183	5.9522
7184	5.3274
7185	3.3152
7186	2.9731
7187	4.6395
7188	2.2844
7189	2.385
7190	2.4122
7191	2.0454
7192	1.5397
7193	2.3871
7194	2.3862
7195	1.6308
7196	1.964
7197	1.5557
7198	1.1982
7199	1.2164
7200	1.4023
7201	1.4537
7202	2.1003
7203	2.1003
7204	1.0396
7205	1.407
7206	1.3343
7207	1.978
7208	1.0524
7209	6.6363
7210	6.6364
7211	6.8154
7212	6.5734
7213	6.2255
7214	6.0264
7215	6.2268
7216	6.188
7217	5.9651
7218	6.8161
7219	5.9474
7220	6.5743
7221	6.1352
7222	5.9592
7223	6.1894
7224	1.2229
7225	1.1161
7226	1.0888
7227	1.1602
7228	1.5909
7229	1.7317
7230	1.2045
7231	1.2839
7232	1.4908
7233	1.5923
7234	1.4494
7235	1.3315
7236	1.4263
7237	1.3361
7238	1.5455
7239	1.9097
7240	1.9781
7241	2.1078
7242	2.0714
7243	3.3706
7244	3.2762
7245	2.6977
7246	2.7813
7247	3.5643
7248	3.5805
7249	3.2874
7250	2.5285
7251	2.4231
7252	3.3155
7253	3.4078
7254	2.8688
7255	2.5404
7256	2.9571
7257	3.0247
7258	1.7897
7259	1.6446
7260	1.656
7261	1.4049
7262	1.7717
7263	1.6439
7264	1.1742
7265	1.6318
7266	1.7231
7267	1.1399
7268	1.5998
7269	1.3748
7270	1.4676
7271	1.134
7272	1.5623
7273	1.0455
7274	1.3568
7275	1.1638
7276	1.278
7277	0.97663
7278	1.0303
7279	11.509
7280	12.041
7281	11.608
7282	11.033
7283	12.792
7284	10.698
7285	10.583
7286	11.797
7287	11.5
7288	12.224
7289	12.3
7290	12.661
7291	10.704
7292	12.249
7293	11.49
7294	12.203
7295	0.95279
7296	0.99303
7297	1.1216
7298	1.0447
7299	1.018
7300	0.93121
7301	0.83184
7302	1.0425
7303	1.2634
7304	1.1799
7305	0.88352
7306	0.81709
7307	1.2209
7308	1.0963
7309	0.88751
7310	1.1548
7311	0.62831
7312	0.55388
7313	0.90326
7314	1.2094
7315	1.3827
7316	1.4103
7317	1.8208
7318	1.5874
7319	0.64373
7320	0.55284
7321	1.2881
7322	1.6452
7323	1.473
7324	1.1811
7325	0.88783
7326	1.0486
7327	3.76
7328	4.3046
7329	4.3888
7330	3.7801
7331	4.4604
7332	4.1775
7333	4.0482
7334	4.1255
7335	3.6893
7336	4.2136
7337	3.6416
7338	3.9055
7339	4.0868
7340	4.0235
7341	3.7184
7342	4.0052
7343	4.1652
7344	4.0212
7345	3.9834
7346	4.2409
7347	4.0726
7348	0.36081
7349	0.59349
7350	0.46475
7351	0.75984
7352	0.59581
7353	0.43431
7354	0.26977
7355	0.50928
7356	0.51607
7357	0.93802
7358	0.82113
7359	1.1608
7360	0.93263
7361	1.5619
7362	1.597
7363	0.42518
7364	0.97135
7365	1.0236
7366	0.69057
7367	0.7584
7368	1.2686
7369	1.0614
7370	1.1527
7371	1.2298
7372	1.0488
7373	1.6117
7374	1.5583
7375	1.5026
7376	1.7057
7377	1.7494
7378	1.0621
7379	1.1441
7380	0.94957
7381	1.1689
7382	1.2838
7383	1.3521
7384	1.146
7385	1.2829
7386	1.348
7387	1.4219
7388	2.1515
7389	2.1551
7390	1.9351
7391	1.9846
7392	1.8281
7393	1.7626
7394	1.7836
7395	1.3427
7396	1.4167
7397	1.5311
7398	1.6575
7399	1.5484
7400	1.5715
7401	1.8373
7402	1.3937
7403	1.4488
7404	1.5841
7405	1.3643
7406	1.3568
7407	1.3694
7408	1.4074
7409	1.5047
7410	1.5616
7411	0.72077
7412	0.76463
7413	1.1689
7414	0.70753
7415	1.1632
7416	0.98052
7417	0.52789
7418	1.5231
7419	1.2539
7420	0.35112
7421	0.2744
7422	0.51733
7423	0.75153
7424	0.62764
7425	0.71728
7426	0.8526
7427	0.92721
7428	1.1382
7429	0.71737
7430	0.61051
7431	1.2399
7432	0.65269
7433	1.0448
7434	1.0885
7435	0.58278
7436	1.171
7437	1.6833
7438	1.7664
7439	1.698
7440	1.5777
7441	1.9344
7442	1.7819
7443	1.6062
7444	1.6601
7445	1.9795
7446	1.6381
7447	1.7413
7448	2.0616
7449	1.4935
7450	1.6266
7451	1.5894
7452	1.6849
7453	1.7999
7454	2.089
7455	0.63813
7456	0.58971
7457	0.69912
7458	0.72693
7459	0.87223
7460	0.52004
7461	0.68777
7462	0.88576
7463	0.93368
7464	0.71755
7465	0.6432
7466	0.59906
7467	0.54157
7468	0.65602
7469	0.75105
7470	0.56656
7471	0.79746
7472	0.6629
7473	0.68947
7474	0.77947
7475	2.8204
7476	2.8982
7477	2.6808
7478	2.3081
7479	2.3763
7480	1.8254
7481	3.0641
7482	2.9034
7483	3.1855
7484	2.5683
7485	1.9708
7486	2.9642
7487	3.1456
7488	2.1897
7489	1.7236
7490	2.2281
7491	2.5705
7492	2.9934
7493	3.0262
7494	1.7816
7495	2.02
7496	2.0038
7497	3.2315
7498	2.503
7499	3.3086
7500	3.4814
7501	8.3791
7502	7.1599
7503	4.6139
7504	5.8674
7505	5.7205
7506	5.1388
7507	6.8808
7508	6.3045
7509	5.8641
7510	4.6954
7511	9.0593
7512	9.2146
7513	9.2156
7514	9.372
7515	5.0706
7516	6.8822
7517	6.3059
7518	8.0465
7519	5.9876
7520	4.8434
7521	5.9936
7522	7.3016
7523	7.3047
7524	4.9254
7525	5.5549
7526	5.1087
7527	4.744
7528	3.9946
7529	4.2452
7530	5.1825
7531	5.2678
7532	4.6998
7533	3.9993
7534	5.7327
7535	5.7042
7536	4.8002
7537	4.2167
7538	4.8047
7539	5.2833
7540	5.5849
7541	4.9256
7542	4.4384
7543	4.3823
7544	4.7209
7545	3.9167
7546	5.4771
7547	3.7698
7548	4.0071
7549	1.8242
7550	2.3017
7551	1.6549
7552	1.8798
7553	1.8194
7554	2.2359
7555	2.113
7556	2.3127
7557	1.9474
7558	1.7967
7559	1.6887
7560	1.7444
7561	2.1589
7562	2.4066
7563	1.7275
7564	2.0095
7565	1.641
7566	1.8255
7567	1.6921
7568	1.9615
7569	2.3873
7570	1.8237
7571	1.9404
7572	2.0963
7573	2.0334
7574	1.9593
7575	1.755
7576	1.7979
7577	1.9059
7578	1.9725
7579	1.7812
7580	1.9123
7581	2.4482
7582	1.9584
7583	1.8649
7584	1.8769
7585	1.95
7586	1.7341
7587	2.2119
7588	2.0075
7589	1.7304
7590	1.9317
7591	2.4985
7592	2.1102
7593	2.1558
7594	2.2086
7595	2.2965
7596	2.3335
7597	2.1665
7598	2.6225
7599	2.812
7600	2.9318
7601	2.706
7602	2.2451
7603	2.943
7604	2.6809
7605	1.7886
7606	1.8253
7607	2.2557
7608	2.3535
7609	3.5961
7610	3.6138
7611	2.2044
7612	2.12
7613	2.0939
7614	2.6533
7615	2.9091
7616	2.72
7617	3.5897
7618	2.728
7619	2.9604
7620	2.302
7621	2.6506
7622	3.0348
7623	2.8319
7624	3.215
7625	1.3752
7626	1.0965
7627	0.78704
7628	0.91886
7629	1.6542
7630	1.6128
7631	0.75855
7632	0.80791
7633	0.65621
7634	0.7202
7635	1.5306
7636	1.003
7637	3.9369
7638	5.3149
7639	2.5697
7640	3.1987
7641	3.3438
7642	4.4699
7643	5.5741
7644	3.0643
7645	3.952
7646	4.2457
7647	2.6658
7648	4.2414
7649	5.2155
7650	5.0438
7651	5.6635
7652	4.9591
7653	6.0115
7654	5.2719
7655	4.3015
7656	3.792
7657	5.7968
7658	5.4719
7659	3.3725
7660	6.2231
7661	4.8899
7662	6.5517
7663	4.9357
7664	0.83965
7665	0.89679
7666	0.91816
7667	0.78227
7668	0.81814
7669	0.82131
7670	0.87538
7671	0.85295
7672	0.94017
7673	0.98576
7674	0.72078
7675	0.72975
7676	0.80279
7677	0.86192
7678	0.91231
7679	0.75387
7680	0.93756
7681	0.89855
7682	0.70213
7683	0.65143
7684	0.65247
7685	0.84257
7686	7.9429
7687	7.5647
7688	6.4938
7689	7.7115
7690	7.4069
7691	7.3758
7692	7.5602
7693	6.5085
7694	5.6575
7695	7.551
7696	6.5338
7697	7.7143
7698	7.4047
7699	6.5974
7700	6.5952
7701	7.5439
7702	6.5399
7703	6.5848
7704	5.9513
7705	5.2693
7706	6.5788
7707	5.9423
7708	5.4434
7709	7.9105
7710	7.7137
7711	7.9161
7712	7.7192
7713	7.7162
7714	7.7274
7715	7.5334
7716	6.3972
7717	6.401
7718	7.5391
7719	7.5365
7720	6.8388
7721	7.0956
7722	7.0876
7723	6.8518
7724	6.3886
7725	6.8492
7726	6.84
7727	6.5953
7728	7.089
7729	6.8534
7730	7.0987
7731	3.9846
7732	4.2735
7733	3.9977
7734	4.0048
7735	4.4118
7736	4.6589
7737	4.3579
7738	4.6512
7739	4.6418
7740	5.1254
7741	5.3479
7742	5.35
7743	4.4308
7744	5.1968
7745	5.2072
7746	5.3805
7747	5.0628
7748	5.0788
7749	4.6792
7750	5.3689
7751	1.9944
7752	1.9701
7753	1.5348
7754	1.7479
7755	1.8144
7756	1.6921
7757	1.9122
7758	1.8443
7759	1.8006
7760	1.7062
7761	1.7343
7762	1.9334
7763	1.9543
7764	1.6934
7765	1.5316
7766	1.802
7767	1.9606
7768	1.9903
7769	1.6255
7770	1.771
7771	1.015
7772	1.1041
7773	1.0493
7774	1.1487
7775	0.93132
7776	1.0212
7777	1.1514
7778	1.2115
7779	0.9381
7780	0.92188
7781	0.86086
7782	1.0688
7783	1.1505
7784	1.179
7785	1.2175
7786	0.98025
7787	0.92851
7788	1.1181
7789	0.81123
7790	0.92126
7791	1.0643
7792	8.1882
7793	8.3539
7794	10.107
7795	9.576
7796	9.1496
7797	10.162
7798	9.592
7799	8.3481
7800	8.431
7801	9.3397
7802	9.7598
7803	9.0112
7804	10.098
7805	9.5794
7806	9.775
7807	8.6441
7808	8.9686
7809	8.4871
7810	8.9712
7811	9.0106
7812	0.89789
7813	0.82492
7814	0.96366
7815	0.85705
7816	1.0623
7817	0.9367
7818	0.95499
7819	0.82534
7820	1.2064
7821	1.0421
7822	1.1506
7823	0.90517
7824	0.847
7825	1.3902
7826	1.2421
7827	6.818
7828	6.5747
7829	5.9272
7830	6.1222
7831	5.9371
7832	7.0115
7833	6.7228
7834	5.9613
7835	6.1208
7836	5.9628
7837	6.1896
7838	5.9381
7839	5.7451
7840	6.818
7841	6.5757
7842	6.1913
7843	3.0787
7844	3.1907
7845	3.1568
7846	3.0981
7847	3.4555
7848	3.7329
7849	3.3523
7850	3.4543
7851	3.7526
7852	3.5761
7853	4.6528
7854	4.5236
7855	4.6233
7856	5.0303
7857	3.7446
7858	3.7888
7859	5.12
7860	5.6783
7861	4.0117
7862	4.7062
7863	5.2006
7864	4.5821
7865	1.7889
7866	1.0763
7867	1.1092
7868	1.2119
7869	1.5137
7870	1.1395
7871	1.6041
7872	1.2208
7873	3.9631
7874	4.2504
7875	3.8687
7876	5.0154
7877	4.1653
7878	4.0243
7879	5.1343
7880	4.981
7881	4.4696
7882	4.3591
7883	4.8822
7884	5.2291
7885	5.0656
7886	2.9528
7887	2.4306
7888	3.6156
7889	3.0388
7890	3.1666
7891	3.4968
7892	3.4542
7893	4.1844
7894	2.7583
7895	2.0583
7896	4.1197
7897	3.3298
7898	3.1587
7899	2.0881
7900	2.9967
7901	2.4758
7902	2.2304
7903	4.3252
7904	3.3933
7905	4.9056
7906	3.3868
7907	2.1717
7908	1.7914
7909	4.5154
7910	4.2387
7911	2.3146
7912	1.763
7913	1.9129
7914	1.2459
7915	1.2474
7916	2.0287
7917	1.7441
7918	2.0755
7919	2.0827
7920	1.8113
7921	1.577
7922	2.1773
7923	1.2115
7924	1.2451
7925	1.5041
7926	1.2608
7927	1.4628
7928	5.8464
7929	6.0627
7930	4.9121
7931	5.1525
7932	4.68
7933	4.9124
7934	4.7606
7935	4.979
7936	5.7012
7937	5.632
7938	5.8464
7939	5.248
7940	5.9481
7941	4.9787
7942	5.1988
7943	5.7146
7944	5.2474
7945	5.7013
7946	2.2013
7947	2.2447
7948	2.4382
7949	2.2557
7950	2.1074
7951	2.4971
7952	2.4255
7953	2.1812
7954	2.2773
7955	2.4966
7956	2.4298
7957	2.2121
7958	0.55784
7959	0.48209
7960	0.39977
7961	0.45722
7962	0.3761
7963	0.38762
7964	0.38485
7965	0.36502
7966	0.15387
7967	0.20097
7968	0.17597
7969	0.28066
7970	0.27561
7971	0.26578
7972	0.18103
7973	0.15224
7974	0.25565
7975	0.22498
7976	0.23999
7977	0.88643
7978	0.99312
7979	1.0337
7980	0.95624
7981	0.9034
7982	0.98268
7983	1.2257
7984	1.0883
7985	1.0132
7986	1.2459
7987	1.2893
7988	1.2089
7989	1.0642
7990	0.14671
7991	0.13871
7992	0.10862
7993	0.12672
7994	0.1129
7995	7.8763e-002
7996	0.21043
7997	0.14424
7998	0.20007
7999	5.0381e-002
8000	5.2313e-002
8001	5.2081e-002
8002	0.13927
8003	0.14333
8004	7.2522e-002
8005	7.4809e-002
8006	6.7956
8007	6.7958
8008	7.0455
8009	7.5191
8010	7.6932
8011	7.5196
8012	7.9547
8013	7.7604
8014	7.7687
8015	7.1326
8016	7.1326
8017	7.725
8018	7.9048
8019	7.5776
8020	7.5601
8021	7.5603
8022	7.7246
8023	7.9201
8024	7.7601
8025	7.9451
8026	9.3799
8027	9.583
8028	8.0847
8029	7.2048
8030	7.7382
8031	7.1634
8032	9.5823
8033	6.3203
8034	7.2053
8035	6.9024
8036	6.3178
8037	8.0998
8038	7.7375
8039	7.1628
8040	8.5752
8041	7.9239
8042	7.9246
8043	6.2482
8044	8.097
8045	7.1201
8046	7.1207
8047	6.0386
8048	6.1075
8049	2.2426
8050	2.463
8051	2.4358
8052	2.176
8053	2.5631
8054	2.3098
8055	2.4374
8056	2.3676
8057	1.3997
8058	1.2942
8059	1.4166
8060	1.2888
8061	0.97701
8062	1.0376
8063	1.3801
8064	1.1009
8065	1.1535
8066	1.073
8067	0.88891
8068	0.89417
8069	1.0981
8070	1.1146
8071	1.0686
8072	0.78597
8073	1.0155
8074	0.88892
8075	0.83689
8076	0.47793
8077	0.35293
8078	0.51251
8079	0.46765
8080	0.72985
8081	2.1895
8082	2.1116
8083	1.7538
8084	2.0574
8085	2.0402
8086	1.707
8087	1.4666
8088	1.2203
8089	1.9229
8090	1.7267
8091	2.087
8092	1.8494
8093	1.2596
8094	1.4822
8095	1.3308
8096	1.7472
8097	1.9081
8098	1.296
8099	4.1396
8100	4.4657
8101	4.4207
8102	3.1098
8103	4.8239
8104	4.8737
8105	3.8405
8106	4.1987
8107	4.3428
8108	4.4411
8109	3.8047
8110	3.4299
8111	3.0416
8112	3.8077
8113	4.7464
8114	3.7649
8115	4.1492
8116	4.0261
8117	4.3313
8118	3.9853
8119	4.4107
8120	3.9297
8121	3.957
8122	4.2171
8123	4.2418
8124	5.1749
8125	4.5766
8126	4.2198
8127	4.454
8128	4.5796
8129	5.1749
8130	5.3474
8131	5.0305
8132	5.0309
8133	1.5401
8134	0.64346
8135	1.027
8136	1.5806
8137	2.246
8138	2.1524
8139	1.5978
8140	2.6973
8141	2.6152
8142	1.1351
8143	1.8791
8144	2.657
8145	2.6472
8146	2.2936
8147	2.3576
8148	1.6848
8149	2.4473
8150	3.7995
8151	4.0765
8152	3.6478
8153	4.0154
8154	4.6931
8155	5.5951
8156	5.2515
8157	5.4611
8158	4.9306
8159	5.9167
8160	4.2363
8161	4.7516
8162	4.0456
8163	5.6427
8164	2.0912
8165	2.4733
8166	1.7922
8167	1.7385
8168	2.2336
8169	1.9522
8170	2.1676
8171	2.6384
8172	2.9555
8173	2.013
8174	2.093
8175	2.7224
8176	3.1596
8177	2.402
8178	1.7036
8179	1.8705
8180	2.4742
8181	1.9108
8182	2.1405
8183	2.1114
8184	2.8223
8185	2.0862
8186	1.7083
8187	1.7106
8188	1.6702
8189	1.708
8190	1.8517
8191	1.6344
8192	3.1336
8193	3.5364
8194	4.4468
8195	4.882
8196	4.6323
8197	4.8782
8198	2.8475
8199	3.7627
8200	5.1648
8201	5.2461
8202	4.2352
8203	4.3912
8204	4.0647
8205	4.1683
8206	5.7435
8207	5.1587
8208	5.3013
8209	5.4798
8210	4.7887
8211	4.0638
8212	2.1878
8213	1.848
8214	2.4483
8215	1.9344
8216	1.7196
8217	1.3599
8218	1.4237
8219	1.7368
8220	2.3088
8221	2.5378
8222	1.7711
8223	1.6917
8224	2.3871
8225	2.4497
8226	1.8929
8227	1.455
8228	2.2309
8229	2.5066
8230	1.5394
8231	1.5206
8232	1.5735
8233	2.0904
8234	1.8315
8235	1.4036
8236	2.0646
8237	1.7576
8238	2.2806
8239	2.819
8240	1.4991
8241	1.802
8242	1.7252
8243	1.3316
8244	2.2925
8245	2.1892
8246	1.8099
8247	2.8669
8248	0.63212
8249	0.63995
8250	1.0856
8251	1.0499
8252	1.671
8253	1.412
8254	1.6722
8255	1.9648
8256	1.4152
8257	1.966
8258	2.3333
8259	2.2891
8260	0.99474
8261	1.0974
8262	1.0524
8263	1.0023
8264	1.123
8265	1.0155
8266	1.0454
8267	1.2644
8268	1.0442
8269	0.9422
8270	1.1173
8271	1.1946
8272	1.089
8273	1.2935
8274	0.98365
8275	1.3261
8276	0.57819
8277	0.59003
8278	0.53984
8279	0.55792
8280	0.59612
8281	0.53715
8282	0.56424
8283	0.50781
8284	0.54228
8285	0.53344
8286	1.1804
8287	0.97589
8288	0.88059
8289	0.70316
8290	0.5293
8291	0.73637
8292	0.83389
8293	0.66141
8294	1.0766
8295	0.92485
8296	0.5059
8297	0.70741
8298	0.72689
8299	0.57052
8300	0.54717
8301	0.72444
8302	0.77835
8303	0.68175
8304	0.92063
8305	0.85767
8306	1.0448
8307	1.1866
8308	0.76849
8309	1.1679
8310	1.0827
8311	1.2083
8312	0.9058
8313	1.0762
8314	1.216
8315	0.91961
8316	0.78967
8317	0.97193
8318	1.1602
8319	1.57
8320	1.5661
8321	1.861
8322	1.9886
8323	1.9674
8324	1.9073
8325	2.1046
8326	2.2561
8327	2.2551
8328	2.3413
8329	2.5232
8330	2.4215
8331	2.9164
8332	3.0886
8333	0.27635
8334	0.35838
8335	0.32769
8336	0.31336
8337	0.47118
8338	0.42512
8339	0.33573
8340	0.28224
8341	0.32462
8342	0.44147
8343	0.54089
8344	0.50124
8345	0.53427
8346	0.58944
8347	0.4463
8348	1.1118
8349	1.5132
8350	1.6042
8351	1.322
8352	1.2651
8353	1.1871
8354	1.1073
8355	1.2955
8356	1.6134
8357	0.93453
8358	0.82291
8359	0.66796
8360	0.67836
8361	0.60667
8362	0.57709
8363	0.70723
8364	0.81295
8365	0.82897
8366	0.87957
8367	0.92303
8368	0.98652
8369	0.97475
8370	0.73784
8371	0.77714
8372	0.73181
8373	0.63812
8374	0.65692
8375	0.90608
8376	0.74881
8377	0.80517
8378	0.9083
8379	0.79318
8380	0.63695
8381	0.74944
8382	0.50088
8383	0.51036
8384	0.85357
8385	0.723
8386	0.45339
8387	0.46437
8388	0.68866
8389	0.7802
8390	0.8988
8391	0.78069
8392	0.65188
8393	0.77168
8394	0.94412
8395	0.91903
8396	0.61686
8397	0.65084
8398	0.87889
8399	0.93766
8400	0.95738
8401	0.66377
8402	3.8485
8403	3.2571
8404	3.3864
8405	4.6709
8406	3.1314
8407	2.653
8408	3.7957
8409	4.7968
8410	4.3544
8411	4.8058
8412	3.0356
8413	3.8975
8414	2.4648
8415	4.6568
8416	2.4765
8417	1.613
8418	1.5819
8419	1.7151
8420	1.5953
8421	1.6755
8422	1.6585
8423	1.6113
8424	1.6954
8425	1.5515
8426	1.7417
8427	1.6764
8428	1.7342
8429	1.5172
8430	1.7017
8431	1.7317
8432	1.731
8433	1.465
8434	1.8356
8435	1.6176
8436	1.5722
8437	1.6006
8438	1.5646
8439	1.7495
8440	2.2876
8441	1.9299
8442	1.384
8443	1.8434
8444	1.4341
8445	2.2176
8446	2.9578
8447	1.8827
8448	1.3863
8449	2.2656
8450	1.8829
8451	1.3438
8452	2.9657
8453	1.9553
8454	1.491
8455	2.2014
8456	1.8482
8457	1.0469
8458	0.96515
8459	1.0108
8460	1.1472
8461	1.0865
8462	1.3757
8463	0.97648
8464	1.1386
8465	1.0495
8466	1.2843
8467	0.94313
8468	1.0155
8469	1.2422
8470	1.1657
8471	1.0333
8472	1.2428
8473	1.2099
8474	0.9725
8475	1.0356
8476	1.2319
8477	1.2035
8478	1.1374
8479	1.1525
8480	1.2862
8481	1.015
8482	0.97931
8483	1.1117
8484	1.2306
8485	0.76317
8486	0.67329
8487	0.76944
8488	0.99796
8489	0.52165
8490	0.63306
8491	0.67445
8492	0.73468
8493	0.5917
8494	0.61413
8495	0.64147
8496	0.81553
8497	0.72467
8498	0.75795
8499	0.4114
8500	0.37166
8501	0.44645
8502	0.47991
8503	0.36522
8504	0.21428
8505	0.5715
8506	0.59715
8507	0.33601
8508	0.27623
8509	0.4142
8510	0.42423
8511	1.8179
8512	1.929
8513	1.6579
8514	1.6873
8515	1.6284
8516	2.1922
8517	1.7963
8518	2.1175
8519	1.7374
8520	1.9641
8521	2.3155
8522	1.9455
8523	2.5941
8524	2.3658
8525	2.0494
8526	1.7666
8527	2.0731
8528	2.3348
8529	2.6518
8530	2.4696
8531	0.42418
8532	0.55507
8533	0.38087
8534	0.27046
8535	0.56077
8536	0.6314
8537	0.76276
8538	0.81587
8539	0.574
8540	0.69584
8541	0.39363
8542	0.31305
8543	0.21095
8544	0.39848
8545	0.64757
8546	0.54149
8547	0.34304
8548	1.2128
8549	1.2148
8550	2.2283
8551	2.013
8552	1.4543
8553	1.4292
8554	1.2758
8555	1.7984
8556	2.4135
8557	2.8837
8558	1.2651
8559	1.3413
8560	1.5902
8561	2.1163
8562	1.2234
8563	1.2331
8564	1.3578
8565	1.4781
8566	1.7962
8567	2.1481
8568	1.4829
8569	1.7723
8570	1.5901
8571	1.4956
8572	1.4969
8573	1.4716
8574	1.4859
8575	1.5287
8576	1.3042
8577	1.3334
8578	1.4424
8579	1.3538
8580	1.2464
8581	1.3853
8582	1.2913
8583	0.79769
8584	0.78273
8585	0.81959
8586	0.80285
8587	0.72835
8588	0.70335
8589	0.60426
8590	0.72249
8591	0.64009
8592	0.70037
8593	0.75712
8594	0.74649
8595	0.7339
8596	0.71739
8597	0.76837
8598	0.85466
8599	0.86635
8600	0.60782
8601	0.56768
8602	0.71665
8603	0.86192
8604	0.86149
8605	0.65431
8606	0.61817
8607	0.3854
8608	0.4051
8609	0.30984
8610	0.21928
8611	0.29235
8612	0.21108
8613	0.27454
8614	0.20317
8615	4.1771
8616	3.6631
8617	2.7693
8618	2.3093
8619	2.9632
8620	3.9314
8621	4.592
8622	3.378
8623	3.716
8624	3.7515
8625	2.6579
8626	3.7985
8627	4.1567
8628	2.8231
8629	3.028
8630	3.296
8631	3.57
8632	0.9469
8633	0.87641
8634	1.0501
8635	0.96228
8636	0.87666
8637	0.8557
8638	0.80189
8639	1.0631
8640	1.2038
8641	0.95003
8642	0.78954
8643	0.92921
8644	1.3144
8645	1.4309
8646	0.94533
8647	1.3253
8648	0.94514
8649	1.299
8650	1.4918
8651	1.0051
8652	1.2476
8653	1.0381
8654	0.81799
8655	0.86151
8656	1.018
8657	0.89141
8658	1.0637
8659	1.1984
8660	1.1539
8661	0.98188
8662	0.85927
8663	0.93374
8664	0.90129
8665	1.336
8666	1.2801
8667	1.0284
8668	1.1379
8669	1.2572
8670	1.3008
8671	1.245
8672	1.1533
8673	1.061
8674	0.91378
8675	0.80964
8676	1.0902
8677	1.0073
8678	0.89808
8679	0.87485
8680	0.78137
8681	0.75738
8682	0.74221
8683	0.68856
8684	0.96612
8685	0.8698
8686	1.0626
8687	0.73693
8688	0.73884
8689	0.76465
8690	0.9199
8691	0.86499
8692	1.1004
8693	1.1216
8694	1.1049
8695	1.0442
8696	1.8563
8697	1.8074
8698	1.8327
8699	2.3718
8700	2.4529
8701	1.9602
8702	1.3674
8703	1.4843
8704	1.8967
8705	1.5585
8706	1.9534
8707	0.45499
8708	0.37645
8709	0.49206
8710	0.35339
8711	0.36989
8712	0.42058
8713	0.38863
8714	0.2916
8715	0.2978
8716	0.28474
8717	0.23385
8718	0.27411
8719	1.7715
8720	1.9606
8721	1.9343
8722	2.2509
8723	1.8
8724	2.0222
8725	2.2775
8726	2.3321
8727	2.1173
8728	1.8166
8729	2.5874
8730	2.6151
8731	2.2514
8732	2.5849
8733	2.3241
8734	2.3864
8735	2.4045
8736	2.4488
8737	2.5151
8738	2.4246
8739	2.6233
8740	2.3308
8741	2.5222
8742	3.1713
8743	2.9876
8744	2.5288
8745	2.8898
8746	2.7871
8747	2.4865
8748	2.3252
8749	2.8356
8750	2.6588
8751	2.9918
8752	2.4892
8753	2.3387
8754	2.3629
8755	2.464
8756	2.3258
8757	3.0617
8758	3.0243
8759	3.0336
8760	2.7715
8761	2.637
8762	2.8304
8763	3.168
8764	2.1487
8765	2.8578
8766	1.826
8767	2.226
8768	2.8345
8769	1.734
8770	2.1666
8771	2.8258
8772	1.2748
8773	1.3157
8774	2.0583
8775	2.28
8776	1.8417
8777	1.8322
8778	1.3698
8779	1.9374
8780	1.3763
8781	1.1288
8782	0.88745
8783	2.0017
8784	1.9157
8785	1.404
8786	0.28187
8787	0.56966
8788	0.91725
8789	1.6493
8790	1.5231
8791	0.97988
8792	0.37966
8793	0.54832
8794	0.74148
8795	1.4495
8796	1.2027
8797	1.4724
8798	1.3138
8799	0.6881
8800	0.78065
8801	1.0276
8802	1.1211
8803	1.4603
8804	1.4396
8805	0.63377
8806	0.71976
8807	0.8835
8808	0.9364
8809	0.76796
8810	1.4284
8811	1.2875
8812	1.1017
8813	1.3796
8814	1.2439
8815	1.1107
8816	1.1946
8817	0.91071
8818	0.87218
8819	2.9455
8820	3.2977
8821	2.9243
8822	2.6289
8823	2.7708
8824	2.0787
8825	2.1199
8826	3.1782
8827	3.5422
8828	2.7819
8829	2.7686
8830	2.4831
8831	1.9951
8832	2.0972
8833	2.759
8834	2.6075
8835	3.3757
8836	3.3933
8837	2.4501
8838	2.7487
8839	3.2982
8840	3.8631
8841	3.4045
8842	3.8053
8843	3.8506
8844	3.4873
8845	3.9945
8846	3.7189
8847	3.7579
8848	3.789
8849	3.5742
8850	4.1424
8851	3.7699
8852	3.6085
8853	3.0123
8854	3.0795
8855	3.539
8856	3.4647
8857	1.6259
8858	1.7847
8859	1.532
8860	1.7927
8861	1.7226
8862	1.8599
8863	1.4174
8864	1.6289
8865	1.841
8866	1.5889
8867	2.0163
8868	1.4438
8869	1.3275
8870	1.7776
8871	1.8317
8872	1.3741
8873	1.3449
8874	8.1031
8875	7.5246
8876	7.328
8877	8.0564
8878	8.6926
8879	8.0914
8880	7.2702
8881	8.0755
8882	8.9552
8883	9.3279
8884	8.9705
8885	9.7003
8886	10.886
8887	1.8216
8888	1.887
8889	2.0091
8890	2.3429
8891	2.2187
8892	1.5446
8893	1.5812
8894	2.3773
8895	1.8713
8896	2.17
8897	1.6026
8898	1.6648
8899	2.3469
8900	2.0942
8901	0.7871
8902	0.76561
8903	0.79435
8904	0.83581
8905	0.81571
8906	0.80203
8907	0.75414
8908	0.77546
8909	0.80395
8910	0.78987
8911	0.8214
8912	0.78019
8913	0.83832
8914	0.83374
8915	0.86512
8916	4.451
8917	3.786
8918	3.5748
8919	4.1576
8920	3.2602
8921	3.2008
8922	5.9464
8923	6.1674
8924	6.3866
8925	6.1422
8926	3.7613
8927	4.1821
8928	5.4487
8929	5.2453
8930	3.9563
8931	3.5205
8932	4.8055
8933	5.2181
8934	3.8818
8935	1.0696
8936	1.1627
8937	0.98893
8938	1.0795
8939	1.1494
8940	1.2168
8941	1.0996
8942	1.2537
8943	1.1622
8944	0.90811
8945	1.0089
8946	1.0434
8947	1.0001
8948	0.98785
8949	1.184
8950	1.2202
8951	1.2441
8952	2.7367
8953	2.9325
8954	2.3576
8955	3.1395
8956	2.7843
8957	3.0229
8958	3.2955
8959	2.4482
8960	3.2195
8961	2.6567
8962	0.72341
8963	0.71311
8964	0.75041
8965	0.77147
8966	0.69447
8967	0.71247
8968	0.61979
8969	0.76175
8970	3.0084
8971	2.9211
8972	2.1414
8973	2.1277
8974	2.5984
8975	2.4522
8976	2.7505
8977	2.8779
8978	2.739
8979	2.4101
8980	2.4243
8981	2.6109
8982	2.2987
8983	2.2956
8984	2.5349
8985	0.30517
8986	0.2827
8987	0.23238
8988	0.28383
8989	0.41944
8990	0.36852
8991	0.32043
8992	0.27988
8993	0.35676
8994	0.49484
8995	0.46206
8996	0.42851
8997	0.42524
8998	3.4501
8999	4.1909
9000	3.7602
9001	4.6829
9002	4.9473
9003	3.4819
9004	4.5119
9005	4.7775
9006	4.4118
9007	3.7445
9008	5.1292
9009	1.8721
9010	1.7928
9011	1.8607
9012	1.7497
9013	1.4261
9014	1.6315
9015	1.6137
9016	1.7243
9017	1.7364
9018	1.4877
9019	1.8728
9020	1.7654
9021	1.8405
9022	1.7452
9023	1.3863
9024	1.8484
9025	1.3747
9026	1.7532
9027	1.3674
9028	0.71351
9029	0.74558
9030	0.73209
9031	0.77301
9032	0.66534
9033	0.64953
9034	0.729
9035	0.65857
9036	0.65521
9037	0.63789
9038	0.60406
9039	0.63435
9040	3.6518
9041	3.7159
9042	4.2236
9043	4.1709
9044	4.1538
9045	3.7686
9046	4.2134
9047	4.1879
9048	4.3048
9049	4.6102
9050	3.5534
9051	3.4605
9052	3.5372
9053	3.4271
9054	4.5774
9055	3.9215
9056	3.6576
9057	1.2258
9058	1.9891
9059	1.4749
9060	1.9378
9061	1.5179
9062	1.139
9063	2.4092
9064	1.9007
9065	2.3337
9066	1.3086
9067	2.122
9068	1.8628
9069	1.631
9070	2.1024
9071	2.5319
9072	1.963
9073	2.2873
9074	1.5528
9075	1.8193
9076	2.2039
9077	1.91
9078	1.7613
9079	1.9408
9080	1.6908
9081	1.4402
9082	1.7723
9083	1.6804
9084	1.3236
9085	1.4726
9086	1.9973
9087	1.2832
9088	1.9652
9089	1.5683
9090	1.0864
9091	1.2989
9092	1.6056
9093	1.3617
9094	1.3348
9095	2.1437
9096	1.1772
9097	1.1835
9098	1.3567
9099	1.8128
9100	1.6133
9101	1.7991
9102	2.4154
9103	2.2514
9104	2.0427
9105	0.8958
9106	0.83217
9107	0.91928
9108	0.81213
9109	0.76837
9110	0.85652
9111	0.97298
9112	0.86388
9113	1.0173
9114	0.74696
9115	0.85624
9116	0.85796
9117	0.73146
9118	0.77515
9119	0.8441
9120	0.73317
9121	0.77129
9122	0.70551
9123	0.6481
9124	0.66089
9125	0.70254
9126	0.80867
9127	0.8413
9128	0.65833
9129	0.68665
9130	0.38175
9131	0.50114
9132	0.51396
9133	2.389
9134	2.0532
9135	1.6779
9136	1.679
9137	1.7125
9138	1.6563
9139	2.6112
9140	1.9189
9141	2.5195
9142	2.3387
9143	2.03
9144	2.1819
9145	2.1759
9146	2.8337
9147	2.9553
9148	2.9101
9149	3.0525
9150	2.8436
9151	3.2111
9152	2.4357
9153	2.2156
9154	3.1496
9155	3.0066
9156	2.7799
9157	2.915
9158	2.6048
9159	5.9257
9160	5.9055
9161	5.7334
9162	5.7376
9163	5.904
9164	5.3695
9165	5.1493
9166	4.9544
9167	5.7371
9168	5.1524
9169	5.3612
9170	5.3733
9171	3.4374
9172	2.8019
9173	2.0586
9174	2.1379
9175	3.7265
9176	3.5784
9177	3.2867
9178	3.2727
9179	2.7172
9180	2.214
9181	3.2264
9182	2.4792
9183	2.3716
9184	2.7325
9185	2.1429
9186	2.8662
9187	1.7359
9188	0.90257
9189	1.0782
9190	0.91748
9191	0.95989
9192	2.3752
9193	1.8659
9194	1.7438
9195	0.52645
9196	0.9915
9197	0.57613
9198	0.84904
9199	2.0252
9200	2.312
9201	2.016
9202	1.4787
9203	1.5833
9204	1.9457
9205	2.3101
9206	1.6046
9207	1.3627
9208	1.9735
9209	1.3929
9210	1.4975
9211	1.5801
9212	1.2829
9213	1.4603
9214	2.3709
9215	2.0882
9216	2.1531
9217	2.4037
9218	2.3189
9219	2.0085
9220	1.6599
9221	1.5031
9222	1.9705
9223	0.50057
9224	0.45754
9225	0.50578
9226	0.55607
9227	0.61693
9228	0.54481
9229	0.54383
9230	0.56239
9231	0.62723
9232	0.52916
9233	0.60285
9234	0.48086
9235	0.45036
9236	0.56244
9237	0.50078
9238	0.60923
9239	9.3476
9240	9.3468
9241	9.1921
9242	8.0178
9243	6.9867
9244	7.5668
9245	7.4477
9246	7.8115
9247	6.6664
9248	6.1372
9249	6.6684
9250	6.139
9251	5.52
9252	4.9999
9253	6.9838
9254	7.5616
9255	7.4466
9256	5.0723
9257	5.957
9258	6.453
9259	5.2921
9260	6.4521
9261	5.2185
9262	0.33752
9263	0.31116
9264	0.43553
9265	0.39685
9266	0.32776
9267	0.28895
9268	0.53508
9269	0.4255
9270	0.54043
9271	0.49712
9272	0.49736
9273	0.36759
9274	0.38722
9275	0.32961
9276	4.8684
9277	7.6516
9278	8.5329
9279	6.3348
9280	10.025
9281	11.677
9282	3.9722
9283	7.9054
9284	10.941
9285	7.5325
9286	8.4954
9287	5.7197
9288	6.6819
9289	9.9744
9290	8.5373
9291	10.793
9292	7.4971
9293	5.0639
9294	3.9371
9295	3.8
9296	3.939
9297	3.7999
9298	5.092
9299	5.0638
9300	5.2626
9301	4.1846
9302	4.4324
9303	4.9102
9304	4.2891
9305	4.2895
9306	4.1868
9307	4.431
9308	4.9094
9309	2.1352
9310	2.1318
9311	1.6141
9312	2.0921
9313	1.2282
9314	1.1397
9315	1.4943
9316	1.8903
9317	1.8355
9318	1.1091
9319	0.99151
9320	0.91613
9321	0.80902
9322	1.2923
9323	1.9652
9324	0.99401
9325	0.70267
9326	1.4456
9327	1.1146
9328	1.5312
9329	1.281
9330	1.2239
9331	1.2491
9332	0.66186
9333	0.84
9334	1.0541
9335	1.0311
9336	0.85393
9337	0.88608
9338	1.2473
9339	1.1575
9340	1.3715
9341	0.82276
9342	0.63289
9343	1.0207
9344	0.88381
9345	0.82888
9346	0.98945
9347	0.87689
9348	0.75281
9349	1.3853
9350	1.1994
9351	1.2657
9352	0.96819
9353	1.6092
9354	1.4818
9355	1.2109
9356	1.0343
9357	0.88007
9358	0.84842
9359	1.7053
9360	1.2836
9361	1.7069
9362	1.6878
9363	1.3087
9364	1.0851
9365	0.812
9366	0.80749
9367	1.1354
9368	1.3037
9369	1.4548
9370	1.2922
9371	1.5491
9372	0.91249
9373	1.2746
9374	1.0182
9375	1.0672
9376	1.2559
9377	8.7515
9378	8.4063
9379	9.3205
9380	8.9844
9381	10.21
9382	10.351
9383	8.3382
9384	9.3205
9385	8.9821
9386	9.8968
9387	10.351
9388	10.477
9389	9.4978
9390	8.9104
9391	9.4206
9392	8.9125
9393	8.3271
9394	8.698
9395	9.4183
9396	8.1263
9397	8.6975
9398	8.1976
9399	0.47449
9400	0.64775
9401	0.70893
9402	0.90961
9403	0.83242
9404	0.76768
9405	0.87342
9406	0.80783
9407	0.7909
9408	0.57411
9409	0.44591
9410	0.41487
9411	0.35112
9412	0.40016
9413	0.32229
9414	0.71823
9415	0.60068
9416	0.40588
9417	0.77981
9418	0.71412
9419	0.78631
9420	0.71953
9421	0.60758
9422	13.101
9423	12.823
9424	13.351
9425	13.072
9426	12.831
9427	12.547
9428	13.051
9429	13.285
9430	12.257
9431	12.273
9432	12.795
9433	12.322
9434	12.324
9435	12.974
9436	12.644
9437	12.979
9438	13.199
9439	12.711
9440	12.801
9441	13.045
9442	1.5343
9443	1.3636
9444	1.2105
9445	1.1209
9446	1.2945
9447	1.0907
9448	0.86982
9449	1.4238
9450	1.0123
9451	1.1818
9452	0.92334
9453	1.3
9454	1.6322
9455	2.1444
9456	2.1277
9457	2.6489
9458	2.7656
9459	1.5578
9460	1.7611
9461	2.4743
9462	2.0205
9463	2.5964
9464	2.4719
9465	2.2353
9466	2.4907
9467	2.5064
9468	2.4896
9469	2.2866
9470	2.478
9471	2.5368
9472	2.4712
9473	2.5473
9474	0.51239
9475	0.45892
9476	0.42669
9477	0.52812
9478	0.81748
9479	0.78936
9480	0.69378
9481	0.54419
9482	0.82914
9483	0.72485
9484	0.75751
9485	0.67167
9486	0.83285
9487	0.84898
9488	0.66716
9489	0.61858
9490	0.49369
9491	0.64141
9492	0.73612
9493	0.70249
9494	0.49093
9495	0.62949
9496	0.50041
9497	1.2708
9498	0.75177
9499	1.0488
9500	1.076
9501	1.0473
9502	0.86441
9503	0.67305
9504	0.63933
9505	0.81907
9506	0.87269
9507	0.88347
9508	0.94875
9509	1.0707
9510	1.1427
9511	1.076
9512	1.1773
9513	1.1675
9514	1.2907
9515	1.3696
9516	1.3876
9517	1.1728
9518	1.2758
9519	1.3117
9520	0.1982
9521	0.28723
9522	0.2148
9523	0.38339
9524	0.32222
9525	0.21553
9526	0.49088
9527	0.46591
9528	0.44761
9529	0.49764
9530	0.23141
9531	0.40199
9532	0.36696
9533	0.44685
9534	0.41922
9535	0.31933
9536	0.34465
9537	6.9551
9538	6.6426
9539	6.6265
9540	7.0131
9541	6.6226
9542	9.7602
9543	7.6184
9544	7.3348
9545	8.8071
9546	5.9594
9547	6.1452
9548	6.9206
9549	14.356
9550	8.4977
9551	13.596
9552	9.8614
9553	7.9781
9554	1.0762
9555	1.3505
9556	1.0017
9557	0.95666
9558	1.9189
9559	1.8319
9560	1.8342
9561	1.7997
9562	2.2681
9563	2.1586
9564	2.9028
9565	2.2211
9566	1.9583
9567	1.2536
9568	0.95377
9569	2.4544
9570	2.7874
9571	2.1957
9572	2.6346
9573	2.2416
9574	2.8891
9575	1.5595
9576	0.99328
9577	1.2548
9578	0.86959
9579	1.9717
9580	1.8619
9581	1.1072
9582	1.1946
9583	0.77923
9584	0.71696
9585	0.72409
9586	0.78058
9587	0.61604
9588	1.0824
9589	0.94696
9590	0.95117
9591	1.0698
9592	0.94707
9593	0.84106
9594	0.56348
9595	0.686
9596	0.85035
9597	1.0531
9598	0.68283
9599	0.5538
9600	0.65582
9601	0.7666
9602	0.48041
9603	0.67167
9604	0.85803
9605	0.68068
9606	0.9241
9607	0.44149
9608	0.38426
9609	0.18893
9610	0.13959
9611	0.31331
9612	0.2656
9613	0.51113
9614	0.44612
9615	0.19495
9616	0.14061
9617	0.32081
9618	0.1776
9619	0.40113
9620	0.33299
9621	0.22042
9622	13.663
9623	13.726
9624	16.87
9625	15.957
9626	15.956
9627	14.713
9628	15.574
9629	13.907
9630	13.664
9631	15.101
9632	13.907
9633	16.351
9634	17.248
9635	16.35
9636	16.433
9637	15.576
9638	15.278
9639	17.176
9640	15.103
9641	16.04
9642	15.278
9643	16.968
9644	16.04
9645	17.036
9646	5.6116
9647	5.4323
9648	4.655
9649	4.6634
9650	4.7943
9651	5.9087
9652	5.3816
9653	5.7396
9654	5.6023
9655	5.8093
9656	5.0416
9657	5.0413
9658	4.7943
9659	5.0915
9660	5.6793
9661	5.5636
9662	5.084
9663	5.5915
9664	5.5566
9665	1.8295
9666	1.7375
9667	2.1966
9668	2.0615
9669	1.8846
9670	2.6399
9671	2.5657
9672	1.788
9673	1.1529
9674	1.2572
9675	1.2387
9676	1.225
9677	3.2371
9678	3.0107
9679	2.7388
9680	2.3198
9681	2.5987
9682	3.0365
9683	2.4862
9684	1.5479
9685	4.3154
9686	2.9663
9687	4.202
9688	4.0633
9689	0.36046
9690	0.29197
9691	0.24131
9692	0.28202
9693	0.45232
9694	0.40155
9695	0.27764
9696	0.2731
9697	0.17354
9698	0.19632
9699	0.15169
9700	0.35414
9701	0.33528
9702	0.45173
9703	0.43521
9704	0.61404
9705	0.51059
9706	0.68563
9707	0.50574
9708	0.59199
9709	0.44101
9710	0.67301
9711	0.55078
9712	0.59165
9713	0.55196
9714	0.63804
9715	0.5948
9716	0.65643
9717	0.61495
9718	0.6847
9719	0.69258
9720	0.75111
9721	0.72192
9722	0.7327
9723	0.79545
9724	0.72732
9725	0.74595
9726	3.2046
9727	3.4365
9728	2.9276
9729	3.0247
9730	3.28
9731	3.5891
9732	2.9699
9733	3.2402
9734	3.4191
9735	3.2011
9736	2.708
9737	2.3073
9738	2.2449
9739	2.6036
9740	2.549
9741	0.87313
9742	0.85325
9743	0.79993
9744	0.8941
9745	0.86594
9746	0.81052
9747	0.72933
9748	0.82305
9749	0.79394
9750	3.1177
9751	3.1817
9752	3.5677
9753	3.5323
9754	3.7196
9755	3.7072
9756	3.3072
9757	3.7301
9758	2.8976
9759	3.1188
9760	3.1297
9761	3.7714
9762	3.8758
9763	3.2084
9764	3.3688
9765	3.4345
9766	3.9103
9767	3.8862
9768	3.8235
9769	3.4673
9770	3.8359
9771	3.675
9772	3.9333
9773	11.865
9774	9.9443
9775	12.117
9776	9.2004
9777	9.6498
9778	7.334
9779	6.8815
9780	10.302
9781	12.237
9782	12.69
9783	11.773
9784	6.986
9785	7.4534
9786	7.4983
9787	11.914
9788	12.044
9789	8.2857
9790	8.5177
9791	10.777
9792	9.4172
9793	10.198
9794	3.0094
9795	3.4994
9796	3.7388
9797	3.6758
9798	2.8926
9799	2.3849
9800	2.4251
9801	2.8749
9802	2.565
9803	3.4317
9804	2.7845
9805	2.1346
9806	2.245
9807	3.0673
9808	2.3629
9809	2.725
9810	0.79303
9811	0.79995
9812	0.7861
9813	0.81382
9814	0.78114
9815	0.80849
9816	0.80405
9817	0.85564
9818	0.76111
9819	0.77372
9820	0.81632
9821	0.77105
9822	0.78607
9823	0.86587
9824	0.87634
9825	0.84531
9826	0.98612
9827	1.0609
9828	1.1326
9829	1.2188
9830	1.1931
9831	1.0667
9832	1.1493
9833	1.0491
9834	1.0855
9835	1.1959
9836	1.1867
9837	2.0961
9838	2.096
9839	1.9755
9840	2.0232
9841	1.2789
9842	1.4866
9843	1.5084
9844	1.8821
9845	1.9075
9846	1.8146
9847	1.7911
9848	1.8358
9849	3.7637
9850	3.8562
9851	3.7573
9852	3.5261
9853	3.6934
9854	3.104
9855	3.2748
9856	3.3755
9857	3.6171
9858	3.2999
9859	3.4422
9860	3.3457
9861	3.2985
9862	3.2799
9863	3.1079
9864	1.737
9865	1.6862
9866	1.6426
9867	1.7453
9868	2.31
9869	1.545
9870	1.9583
9871	1.8668
9872	1.9613
9873	1.892
9874	1.7894
9875	4.9821
9876	5.239
9877	4.9819
9878	5.938
9879	5.6918
9880	5.9382
9881	5.2389
9882	5.6914
9883	0.35789
9884	0.36754
9885	0.42658
9886	0.37167
9887	0.42587
9888	0.50144
9889	0.56945
9890	0.40839
9891	0.40396
9892	0.60856
9893	0.54773
9894	0.37058
9895	0.48953
9896	0.41823
9897	0.58659
9898	0.50717
9899	0.46303
9900	0.47896
9901	0.60079
9902	0.53761
9903	0.47306
9904	0.55872
9905	8.1708
9906	7.5592
9907	8.1686
9908	8.8201
9909	8.0696
9910	7.3773
9911	10.962
9912	9.1912
9913	8.1331
9914	7.3665
9915	10.952
9916	9.229
9917	7.6144
9918	11.574
9919	9.7031
9920	9.4477
9921	9.0527
9922	9.0836
9923	9.6699
9924	11.552
9925	9.7155
9926	10.627
9927	3.9038
9928	3.9035
9929	3.8493
9930	3.9035
9931	3.8267
9932	3.7381
9933	3.7675
9934	3.8208
9935	3.9635
9936	3.5046
9937	3.5876
9938	3.6625
9939	3.2655
9940	3.2693
9941	3.1211
9942	3.2158
9943	3.402
9944	3.849
9945	1.7716
9946	2.401
9947	1.3577
9948	1.6847
9949	1.6372
9950	1.4899
9951	1.7255
9952	1.662
9953	1.6924
9954	1.7067
9955	2.1472
9956	1.5981
9957	1.0672
9958	1.2359
9959	1.4228
9960	1.5349
9961	1.2882
9962	1.4283
9963	1.6454
9964	2.2677
9965	1.6643
9966	2.098
9967	5.8598
9968	6.428
9969	6.4668
9970	5.8414
9971	6.3538
9972	5.7184
9973	5.2798
9974	5.7387
9975	6.1984
9976	5.606
9977	5.6403
9978	5.2209
9979	0.38026
9980	0.53131
9981	0.59363
9982	0.48566
9983	0.55176
9984	0.47764
9985	0.46016
9986	0.50565
9987	0.33624
9988	0.47095
9989	0.59631
9990	0.37372
9991	1.1058
9992	1.1733
9993	1.1529
9994	1.104
9995	1.0663
9996	0.99611
9997	0.96291
9998	0.89299
9999	1.0354
10000	0.98784
10001	0.77876
10002	0.71498
10003	0.73785
10004	0.99925
10005	0.97802
10006	0.86448
10007	0.89542
10008	0.72652
10009	0.88507
10010	0.81412
10011	1.8557
10012	1.5828
10013	1.785
10014	1.5556
10015	2.3183
10016	2.0893
10017	2.0033
10018	1.543
10019	1.6841
10020	1.6097
10021	1.7833
10022	1.9866
10023	2.2762
10024	1.9276
10025	1.6453
10026	1.3794
10027	1.4782
10028	1.9495
10029	1.7095
10030	1.3236
10031	1.3817
10032	1.5106
10033	1.6312
10034	1.5563
10035	1.7312
10036	1.4959
10037	1.049
10038	1.1074
10039	0.87211
10040	1.0344
10041	1.0884
10042	0.76184
10043	0.71557
10044	0.92381
10045	1.0539
10046	0.63834
10047	0.57251
10048	0.61276
10049	0.67095
10050	0.68396
10051	0.80097
10052	0.60758
10053	0.75102
10054	3.7005
10055	4.1471
10056	1.951
10057	1.6372
10058	2.9071
10059	3.2229
10060	3.3388
10061	4.1247
10062	2.6311
10063	3.1317
10064	2.9602
10065	2.3266
10066	2.9031
10067	1.8178
10068	1.7318
10069	3.7488
10070	1.9164
10071	2.764
10072	3.4221
10073	2.4848
10074	0.68667
10075	0.55904
10076	0.71988
10077	0.76144
10078	0.63083
10079	0.4808
10080	0.71432
10081	0.60374
10082	0.85186
10083	0.75174
10084	0.50022
10085	0.53281
10086	0.65977
10087	0.83359
10088	0.76003
10089	2.0294
10090	3.6555
10091	2.8765
10092	4.
10093	2.7892
10094	1.8331
10095	1.9844
10096	2.4731
10097	2.6801
10098	4.1939
10099	5.4031
10100	4.539
10101	5.1296
10102	6.1206
10103	0.11823
10104	6.9453e-002
10105	0.18361
10106	0.18198
10107	8.4849e-002
10108	0.11041
10109	0.22372
10110	0.2278
10111	0.19078
10112	0.19778
10113	0.16723
10114	0.16883
10115	6.4394e-002
10116	8.3453e-002
10117	7.2662e-002
10118	0.11838
10119	7.3171e-002
10120	5.9316
10121	5.6098
10122	5.7437
10123	5.5955
10124	3.8822
10125	4.9372
10126	4.0937
10127	4.9611
10128	4.473
10129	5.8598
10130	4.5934
10131	4.0261
10132	4.7758
10133	3.6291
10134	0.68602
10135	0.68595
10136	0.79387
10137	0.80161
10138	0.56603
10139	0.5663
10140	0.73867
10141	0.62014
10142	0.76393
10143	0.7866
10144	0.67574
10145	0.58252
10146	0.68749
10147	0.59054
10148	0.72223
10149	0.71065
10150	0.75843
10151	12.187
10152	12.159
10153	12.569
10154	12.347
10155	12.189
10156	12.524
10157	12.331
10158	12.332
10159	12.79
10160	12.571
10161	12.975
10162	13.046
10163	13.242
10164	13.304
10165	12.975
10166	13.046
10167	12.7
10168	12.526
10169	12.827
10170	12.699
10171	13.235
10172	13.028
10173	12.825
10174	13.097
10175	2.6766
10176	3.1355
10177	2.9502
10178	3.3881
10179	2.8541
10180	3.2913
10181	2.2574
10182	3.3988
10183	3.3074
10184	3.4483
10185	3.0368
10186	2.8177
10187	3.8852
10188	2.2422
10189	2.7354
10190	3.2167
10191	3.3745
10192	3.6552
10193	0.50976
10194	0.54831
10195	0.38781
10196	0.43534
10197	0.49651
10198	0.47048
10199	0.38203
10200	0.41646
10201	0.474
10202	0.33027
10203	0.37475
10204	0.27189
10205	0.37748
10206	0.31234
10207	0.25688
10208	0.3943
10209	0.30066
10210	0.27856
10211	0.33086
10212	0.70563
10213	0.7497
10214	0.76907
10215	0.73434
10216	0.566
10217	0.55126
10218	0.62981
10219	0.6155
10220	0.60896
10221	0.69629
10222	0.62985
10223	0.49801
10224	0.56102
10225	0.58643
10226	0.55764
10227	0.42371
10228	0.48314
10229	0.5106
10230	0.50614
10231	0.45422
10232	0.31791
10233	0.3653
10234	0.41883
10235	0.27959
10236	0.23887
10237	0.37157
10238	0.40451
10239	0.38936
10240	0.28208
10241	0.31836
10242	0.34646
10243	0.30931
10244	0.39352
10245	0.33827
10246	0.36965
10247	0.31318
10248	0.37012
10249	0.26714
10250	0.3324
10251	0.36101
10252	0.35037
10253	0.30305
10254	0.33573
10255	0.28682
10256	0.44107
10257	0.31044
10258	0.38895
10259	0.30199
10260	0.36818
10261	0.4743
10262	0.35819
10263	0.36887
10264	0.38724
10265	0.39085
10266	0.42506
10267	0.54543
10268	0.49922
10269	0.37668
10270	0.41986
10271	0.41931
10272	2.3908
10273	2.8624
10274	2.5673
10275	2.8391
10276	2.4528
10277	2.2703
10278	2.6441
10279	2.8904
10280	2.9813
10281	2.5074
10282	1.8664
10283	2.5477
10284	2.9001
10285	2.4336
10286	2.1512
10287	2.3084
10288	2.1009
10289	8.5334
10290	8.6772
10291	8.8395
10292	8.6828
10293	8.2748
10294	8.3072
10295	8.9337
10296	8.385
10297	8.1285
10298	8.5443
10299	8.3719
10300	8.1357
10301	8.3121
10302	8.0156
10303	8.8296
10304	8.3852
10305	2.776
10306	2.5557
10307	2.3245
10308	2.2174
10309	2.2094
10310	2.716
10311	2.1877
10312	2.4739
10313	2.5348
10314	2.7241
10315	2.1565
10316	2.2151
10317	2.1974
10318	1.8801
10319	1.9299
10320	2.1669
10321	2.3654
10322	1.9147
10323	2.1412
10324	2.3794
10325	2.0936
10326	2.4607
10327	0.88381
10328	0.71095
10329	1.3321
10330	1.1835
10331	0.93577
10332	1.15
10333	1.5166
10334	1.3431
10335	1.3901
10336	6.1789
10337	6.8551
10338	4.904
10339	4.8489
10340	5.6757
10341	6.083
10342	4.1805
10343	5.3017
10344	6.6005
10345	5.2349
10346	5.9908
10347	6.6848
10348	4.171
10349	1.5347
10350	1.13
10351	1.9291
10352	1.2163
10353	0.79715
10354	1.5987
10355	0.87635
10356	3.0012
10357	2.7688
10358	2.821
10359	2.0767
10360	1.5348
10361	1.8428
10362	1.3845
10363	2.7275
10364	2.5207
10365	2.1689
10366	2.0888
10367	2.04
10368	2.3497
10369	2.1395
10370	1.6956
10371	1.4705
10372	2.1405
10373	1.7724
10374	1.3269
10375	1.5563
10376	1.7233
10377	2.0316
10378	1.5684
10379	2.4148
10380	1.6679
10381	1.9193
10382	2.1238
10383	2.3459
10384	2.7173
10385	1.8522
10386	1.3838
10387	2.5185
10388	1.8
10389	1.6626
10390	1.7642
10391	2.054
10392	1.6887
10393	1.9594
10394	1.9886
10395	1.96
10396	1.7025
10397	1.8336
10398	1.8399
10399	2.4045
10400	1.8336
10401	2.3593
10402	1.6949
10403	1.6962
10404	2.0175
10405	2.32
10406	1.7883
10407	2.2984
10408	1.652
10409	1.6156
10410	0.74417
10411	0.66378
10412	1.5403
10413	1.3991
10414	1.5455
10415	1.5549
10416	1.5284
10417	1.5237
10418	0.8811
10419	0.93084
10420	0.81257
10421	1.1503
10422	1.3246
10423	0.74389
10424	0.82971
10425	1.3097
10426	1.3653
10427	1.3629
10428	0.86705
10429	1.0381
10430	0.82174
10431	0.99045
10432	1.0396
10433	0.94143
10434	0.86738
10435	1.095
10436	0.91738
10437	0.90301
10438	1.0936
10439	1.1602
10440	2.7129
10441	1.9588
10442	2.1132
10443	1.7269
10444	1.7815
10445	2.11
10446	1.7146
10447	1.8846
10448	1.7335
10449	1.7479
10450	1.9145
10451	1.9903
10452	2.6069
10453	2.1688
10454	1.7872
10455	1.7852
10456	2.19
10457	2.1023
10458	1.7643
10459	1.6619
10460	2.0449
10461	0.22976
10462	0.22461
10463	0.42176
10464	0.34369
10465	0.32106
10466	0.23706
10467	0.23863
10468	0.28281
10469	0.34789
10470	0.39747
10471	0.36557
10472	0.29759
10473	0.36396
10474	1.201
10475	0.96815
10476	1.168
10477	0.93632
10478	0.87192
10479	1.0977
10480	1.1715
10481	0.92406
10482	1.0058
10483	0.78094
10484	0.62313
10485	0.84358
10486	0.56805
10487	0.52177
10488	0.78856
10489	0.6531
10490	0.77334
10491	1.2428
10492	0.59189
10493	0.96258
10494	1.4653
10495	1.2513
10496	1.8856
10497	1.5816
10498	1.4137
10499	1.3338
10500	1.2039
10501	1.7341
10502	2.6654
10503	3.0222
10504	1.365
10505	2.0301
10506	1.5497
10507	2.3593
10508	2.7902
10509	2.2882
10510	2.5853
10511	2.5942
10512	2.8277
10513	2.0018
10514	2.0439
10515	2.6921
10516	1.9455
10517	1.8218
10518	2.8399
10519	2.4587
10520	2.8365
10521	2.5235
10522	2.5575
10523	2.0251
10524	2.6067
10525	2.4207
10526	1.3063
10527	1.433
10528	1.1873
10529	1.041
10530	1.4047
10531	1.3738
10532	1.1476
10533	1.0272
10534	1.1321
10535	1.1731
10536	1.5279
10537	1.3333
10538	0.38633
10539	0.31846
10540	0.31445
10541	0.24784
10542	0.3759
10543	0.40439
10544	0.29732
10545	0.27569
10546	0.40809
10547	0.23484
10548	0.29472
10549	0.33551
10550	0.30879
10551	0.23998
10552	0.22887
10553	0.34074
10554	1.3121
10555	0.81335
10556	0.99915
10557	1.3506
10558	1.6092
10559	1.15
10560	0.95322
10561	0.79471
10562	0.81123
10563	1.1251
10564	1.0557
10565	0.94664
10566	1.1217
10567	1.2008
10568	1.1863
10569	0.64698
10570	0.56969
10571	0.67445
10572	0.58881
10573	0.69201
10574	0.58328
10575	1.0172
10576	1.0986
10577	0.8966
10578	0.956
10579	0.72664
10580	0.66499
10581	0.55621
10582	0.85407
10583	0.91113
10584	0.96349
10585	1.0638
10586	1.1511
10587	0.63401
10588	0.64824
10589	0.85122
10590	1.0753
10591	0.91901
10592	1.8403
10593	1.8157
10594	1.8013
10595	1.6806
10596	1.7467
10597	2.0148
10598	1.8296
10599	1.7351
10600	1.9158
10601	1.6716
10602	1.7063
10603	1.8879
10604	1.3149
10605	1.3605
10606	0.81349
10607	1.0903
10608	1.5921
10609	1.3819
10610	1.5018
10611	1.4398
10612	0.86792
10613	1.5895
10614	1.7445
10615	1.7854
10616	1.0805
10617	1.2744
10618	2.2181
10619	2.3112
10620	0.8003
10621	0.76252
10622	0.67036
10623	0.44454
10624	0.3962
10625	0.59109
10626	0.43033
10627	0.34523
10628	0.83508
10629	0.87112
10630	0.78627
10631	0.68061
10632	0.4242
10633	0.6249
10634	0.34518
10635	0.5345
10636	0.44367
10637	0.42625
10638	0.58779
10639	0.69358
10640	0.66768
10641	0.64839
10642	0.65949
10643	0.53026
10644	0.44021
10645	0.59511
10646	0.45706
10647	0.44776
10648	0.62624
10649	0.59921
10650	2.3917
10651	2.296
10652	2.6661
10653	2.71
10654	2.4908
10655	2.1899
10656	3.0821
10657	3.0167
10658	2.2139
10659	2.3125
10660	2.5676
10661	2.3233
10662	2.4695
10663	2.3789
10664	2.8992
10665	2.3408
10666	2.7722
10667	2.9534
10668	2.4521
10669	1.7724
10670	1.8262
10671	2.086
10672	2.2869
10673	1.5735
10674	1.6398
10675	1.8062
10676	2.0449
10677	1.4595
10678	2.0432
10679	1.6178
10680	1.829
10681	2.759
10682	3.0248
10683	3.2473
10684	2.9673
10685	2.8103
10686	2.5438
10687	2.7546
10688	3.0009
10689	3.6303
10690	2.8476
10691	2.7301
10692	2.9999
10693	3.543
10694	3.6615
10695	3.1436
10696	3.0819
10697	2.4567
10698	2.6457
10699	3.0295
10700	1.0106
10701	0.98103
10702	0.99596
10703	0.99261
10704	1.0646
10705	1.1472
10706	0.96026
10707	1.019
10708	1.1057
10709	1.001
10710	1.2721
10711	1.3289
10712	1.1682
10713	1.366
10714	1.5647
10715	1.3679
10716	1.4919
10717	1.3657
10718	1.3542
10719	1.2217
10720	1.1986
10721	1.2272
10722	1.2546
10723	1.3888
10724	0.99073
10725	1.0423
10726	1.0412
10727	1.1716
10728	0.79351
10729	0.74241
10730	0.82824
10731	1.0299
10732	0.79186
10733	1.241
10734	1.043
10735	1.0489
10736	1.048
10737	0.96848
10738	0.95006
10739	0.84061
10740	0.87402
10741	1.006
10742	0.9897
10743	1.0429
10744	0.85688
10745	0.94972
10746	1.171
10747	0.92498
10748	1.0175
10749	1.0233
10750	1.0035
10751	1.1953
10752	0.91458
10753	0.95866
10754	0.88968
10755	0.93618
10756	0.81537
10757	0.85545
10758	0.7502
10759	0.68982
10760	0.80094
10761	0.86471
10762	0.66439
10763	0.71327
10764	0.73208
10765	0.80377
10766	0.89403
10767	0.81648
10768	4.0552
10769	4.5947
10770	3.938
10771	4.2337
10772	3.7399
10773	4.3215
10774	3.6622
10775	3.4952
10776	4.2489
10777	3.6672
10778	3.9471
10779	5.053
10780	3.7827
10781	3.8053
10782	4.0455
10783	5.197
10784	3.8563
10785	4.3706
10786	6.949
10787	4.7495
10788	8.6578
10789	6.0507
10790	5.4477
10791	2.6893
10792	3.0284
10793	3.9614
10794	3.4169
10795	4.147
10796	3.398
10797	3.6665
10798	3.1431
10799	4.3699
10800	3.0923
10801	3.286
10802	2.812
10803	2.8014
10804	7.2055
10805	7.3345
10806	6.8651
10807	6.6585
10808	7.2019
10809	7.5134
10810	6.7027
10811	6.8672
10812	7.3842
10813	7.3884
10814	7.5443
10815	7.4879
10816	7.6046
10817	7.517
10818	7.4902
10819	7.6373
10820	7.2969
10821	6.7083
10822	6.5148
10823	6.7327
10824	7.3674
10825	6.9558
10826	6.9576
10827	6.9524
10828	6.7334
10829	7.2999
10830	0.7403
10831	0.60205
10832	0.83295
10833	0.70933
10834	0.36832
10835	0.84602
10836	0.9278
10837	0.52974
10838	0.40661
10839	0.31485
10840	0.32262
10841	0.45764
10842	0.41889
10843	0.43764
10844	0.5301
10845	0.89447
10846	0.91246
10847	0.65673
10848	0.68348
10849	0.55077
10850	0.7709
10851	3.3566
10852	2.5146
10853	2.6038
10854	2.8451
10855	2.6423
10856	2.9893
10857	2.972
10858	2.7479
10859	2.6582
10860	3.2371
10861	3.6719
10862	3.6133
10863	3.6347
10864	3.5501
10865	3.7546
10866	3.3903
10867	3.7491
10868	3.5771
10869	3.1517
10870	3.7386
10871	2.9229
10872	3.6032
10873	3.3583
10874	0.16486
10875	0.19525
10876	0.1787
10877	0.15456
10878	0.26393
10879	0.36308
10880	0.42098
10881	0.46714
10882	0.34143
10883	0.23527
10884	0.24747
10885	5.2205
10886	4.8775
10887	3.5354
10888	3.5013
10889	2.8132
10890	2.0025
10891	2.5469
10892	5.6778
10893	5.2781
10894	2.8158
10895	2.935
10896	2.1023
10897	2.2432
10898	2.6213
10899	2.3776
10900	1.8471
10901	3.5971
10902	3.0501
10903	4.1792
10904	4.5639
10905	4.2653
10906	5.2359
10907	5.1157
10908	4.96
10909	4.5631
10910	4.2628
10911	4.3706
10912	5.1148
10913	5.0957
10914	4.0351
10915	4.3685
10916	4.9578
10917	4.5277
10918	4.5242
10919	4.3389
10920	4.6076
10921	4.0501
10922	4.6079
10923	1.422
10924	1.5062
10925	1.6453
10926	1.2427
10927	1.4848
10928	1.6064
10929	1.8083
10930	1.8964
10931	1.7769
10932	1.6221
10933	1.6851
10934	1.7554
10935	1.1198
10936	1.4454
10937	1.2963
10938	1.5597
10939	1.1945
10940	1.3711
10941	1.5848
10942	1.4609
10943	1.4785
10944	1.2368
10945	1.3553
10946	1.198
10947	1.4891
10948	4.3875
10949	4.8
10950	6.0873
10951	5.8049
10952	4.5835
10953	4.906
10954	4.8113
10955	4.804
10956	5.3219
10957	5.294
10958	4.5811
10959	5.5628
10960	6.0129
10961	5.7021
10962	5.9829
10963	5.675
10964	5.871
10965	5.8682
10966	5.0592
10967	4.922
10968	5.3411
10969	5.4994
10970	5.3397
10971	7.3851
10972	7.3809
10973	9.5255
10974	9.2973
10975	6.3289
10976	8.4576
10977	8.6057
10978	8.2301
10979	5.8538
10980	6.3208
10981	6.6692
10982	6.7802
10983	6.0456
10984	6.0471
10985	5.9513
10986	5.7557
10987	5.9508
10988	6.1513
10989	6.2515
10990	6.8712
10991	6.6659
10992	6.8975
10993	7.1178
10994	6.6792
10995	6.896
10996	6.2497
10997	7.1015
10998	6.6644
10999	6.8701
11000	1.0983
11001	1.1183
11002	1.2655
11003	1.1555
11004	1.1597
11005	1.1936
11006	1.0477
11007	1.0841
11008	1.2458
11009	0.90748
11010	0.94274
11011	0.93276
11012	0.98787
11013	1.1499
11014	1.1007
11015	1.002
11016	1.0531
11017	1.1026
11018	1.2604
11019	1.3059
11020	1.3041
11021	1.4094
11022	1.3877
11023	1.1986
11024	1.1399
11025	1.326
11026	1.1015
11027	1.0676
11028	1.6447
11029	1.7124
11030	1.4669
11031	1.579
11032	1.4768
11033	1.6354
11034	1.2985
11035	1.5814
11036	1.629
11037	1.5983
11038	1.6703
11039	1.6318
11040	0.29573
11041	0.47292
11042	1.8177
11043	2.1297
11044	1.1959
11045	1.0473
11046	2.3086
11047	2.9104
11048	0.73584
11049	0.78968
11050	0.84364
11051	0.57019
11052	1.2555
11053	2.056
11054	1.7059
11055	2.3358
11056	2.8627
11057	2.3389
11058	2.8181
11059	2.0027
11060	2.1681
11061	1.6023
11062	1.2166
11063	1.6276
11064	1.6399
11065	2.8503
11066	1.5639
11067	2.0046
11068	3.8808
11069	3.8812
11070	3.7031
11071	3.7008
11072	2.9105
11073	3.5059
11074	3.3165
11075	2.7354
11076	3.4086
11077	2.8895
11078	3.3131
11079	2.5967
11080	2.6645
11081	2.7018
11082	2.7132
11083	3.3793
11084	2.6906
11085	0.52997
11086	0.37621
11087	0.45088
11088	0.35142
11089	0.37697
11090	0.25008
11091	0.22773
11092	0.36796
11093	0.24807
11094	0.50899
11095	0.6202
11096	0.82603
11097	0.17357
11098	0.44923
11099	0.32012
11100	0.70556
11101	0.83474
11102	0.41686
11103	0.28226
11104	0.16679
11105	0.5189
11106	0.58146
11107	0.39902
11108	0.21954
11109	0.33392
11110	0.26197
11111	0.38428
11112	0.36758
11113	0.30191
11114	0.24316
11115	0.38735
11116	0.3451
11117	0.27536
11118	0.34015
11119	0.37912
11120	0.2615
11121	0.31334
11122	0.23055
11123	0.21284
11124	0.24251
11125	0.16762
11126	7.5493
11127	7.4291
11128	6.0068
11129	7.4016
11130	6.8412
11131	6.8413
11132	6.0167
11133	6.2068
11134	7.5197
11135	7.4042
11136	6.1623
11137	6.2556
11138	6.188
11139	7.1843
11140	6.609
11141	6.2048
11142	7.3021
11143	6.4999
11144	6.5299
11145	6.8418
11146	6.6089
11147	7.1444
11148	7.2133
11149	6.6215
11150	6.871
11151	3.9988
11152	3.608
11153	3.9987
11154	3.6093
11155	3.9414
11156	4.1728
11157	3.9377
11158	4.6991
11159	4.9387
11160	4.3017
11161	4.3024
11162	3.6854
11163	4.0299
11164	3.6127
11165	3.6102
11166	4.2296
11167	4.2293
11168	4.7201
11169	4.699
11170	4.5296
11171	3.6893
11172	4.0289
11173	1.3261
11174	1.62
11175	1.0798
11176	1.0686
11177	1.065
11178	1.1721
11179	1.4819
11180	1.3126
11181	1.1652
11182	2.241
11183	1.8084
11184	1.7379
11185	1.4174
11186	0.1567
11187	0.24592
11188	0.11407
11189	0.17131
11190	0.25027
11191	0.29431
11192	0.36942
11193	0.17002
11194	0.27056
11195	0.33424
11196	9.03e-002
11197	0.15605
11198	0.38858
11199	0.38064
11200	0.25003
11201	0.3457
11202	0.37848
11203	0.25104
11204	0.32318
11205	0.29188
11206	0.38543
11207	0.32781
11208	0.1108
11209	0.23346
11210	0.77719
11211	0.76396
11212	0.79274
11213	0.76089
11214	0.78733
11215	0.78323
11216	0.79176
11217	0.72978
11218	0.71656
11219	0.71884
11220	0.75818
11221	0.77826
11222	0.72675
11223	0.81949
11224	0.79843
11225	6.6166
11226	6.5519
11227	6.637
11228	6.5713
11229	6.4084
11230	6.3338
11231	6.0278
11232	5.8819
11233	6.3836
11234	6.312
11235	6.0068
11236	5.8538
11237	6.2505
11238	6.1049
11239	5.9646
11240	6.0381
11241	1.5866
11242	2.0347
11243	2.865
11244	3.0505
11245	2.7354
11246	2.9583
11247	1.9059
11248	2.1959
11249	1.5447
11250	2.0582
11251	2.5749
11252	2.9813
11253	2.5
11254	2.2109
11255	1.6856
11256	2.1336
11257	2.746
11258	2.8087
11259	2.5004
11260	2.2011
11261	2.3932
11262	2.7637
11263	0.78918
11264	0.78473
11265	1.3286
11266	0.94477
11267	1.0182
11268	0.78366
11269	0.77305
11270	1.3449
11271	1.2755
11272	0.95696
11273	1.1153
11274	1.14
11275	1.1558
11276	1.2005
11277	1.7524
11278	1.5091
11279	0.9719
11280	0.96284
11281	1.1556
11282	1.0289
11283	1.6737
11284	1.4512
11285	1.3743
11286	1.7218
11287	1.1138
11288	1.2627
11289	1.0851
11290	0.98034
11291	1.006
11292	0.92486
11293	0.87818
11294	0.93573
11295	0.95331
11296	0.90443
11297	0.98976
11298	1.0906
11299	1.0336
11300	1.1626
11301	1.1171
11302	13.947
11303	14.04
11304	12.946
11305	13.858
11306	13.949
11307	11.597
11308	11.597
11309	12.167
11310	12.168
11311	11.712
11312	12.867
11313	10.236
11314	9.2343
11315	9.1232
11316	11.712
11317	10.922
11318	10.922
11319	9.2338
11320	2.1464
11321	2.6202
11322	3.0421
11323	1.9131
11324	1.8612
11325	1.9237
11326	2.1131
11327	2.3091
11328	2.7019
11329	2.7064
11330	2.163
11331	2.2356
11332	2.4015
11333	2.4008
11334	3.2396
11335	3.4144
11336	3.2574
11337	2.2904
11338	3.2229
11339	2.8582
11340	2.607
11341	2.5116
11342	2.8595
11343	3.0875
11344	2.1811
11345	2.0246
11346	2.2052
11347	1.815
11348	1.6174
11349	2.1207
11350	2.8549
11351	2.5621
11352	2.4579
11353	2.8576
11354	2.5262
11355	2.9162
11356	1.9562
11357	2.1795
11358	1.6747
11359	2.6177
11360	1.8698
11361	1.3525
11362	2.0253
11363	1.0599
11364	1.0795
11365	1.082
11366	1.0966
11367	1.0973
11368	0.93712
11369	0.92997
11370	1.0108
11371	0.97307
11372	0.98361
11373	0.87594
11374	0.93005
11375	0.86354
11376	1.0631
11377	0.80395
11378	0.88431
11379	0.80865
11380	0.87925
11381	0.95483
11382	2.3813
11383	1.959
11384	2.7031
11385	3.2821
11386	1.8862
11387	2.5629
11388	2.9579
11389	2.0439
11390	3.2128
11391	1.6601
11392	2.2221
11393	2.3847
11394	2.6246
11395	2.0846
11396	0.5218
11397	0.41362
11398	0.32857
11399	0.29416
11400	0.36342
11401	0.56614
11402	0.34138
11403	0.40325
11404	0.52247
11405	0.55438
11406	0.41397
11407	0.3949
11408	0.48849
11409	0.49148
11410	0.85807
11411	0.79745
11412	0.80942
11413	0.87809
11414	0.87175
11415	0.71497
11416	0.72118
11417	0.90619
11418	0.8191
11419	0.66088
11420	0.76014
11421	0.85312
11422	0.8733
11423	0.69228
11424	0.74024
11425	0.65077
11426	0.68892
11427	0.85163
11428	1.1265
11429	1.2247
11430	1.2806
11431	1.0427
11432	1.1365
11433	1.3532
11434	1.3728
11435	1.1113
11436	1.2402
11437	1.0605
11438	1.093
11439	1.2009
11440	1.1651
11441	1.3018
11442	1.0566
11443	1.2696
11444	1.7239
11445	0.84056
11446	1.2935
11447	2.208
11448	1.7987
11449	1.3907
11450	1.2905
11451	2.0099
11452	1.8545
11453	1.3448
11454	0.81296
11455	1.8721
11456	0.98276
11457	1.6876
11458	2.1648
11459	0.65587
11460	0.75999
11461	0.71956
11462	0.83866
11463	0.55069
11464	0.61994
11465	0.78968
11466	0.95821
11467	0.6525
11468	0.57047
11469	0.72274
11470	0.86457
11471	0.54985
11472	0.61386
11473	1.1877
11474	1.1521
11475	0.53624
11476	0.84658
11477	1.1512
11478	1.1733
11479	0.97505
11480	0.5817
11481	0.67915
11482	1.0154
11483	0.92967
11484	0.94233
11485	0.77628
11486	0.77004
11487	13.342
11488	13.257
11489	13.896
11490	14.055
11491	13.187
11492	13.188
11493	13.777
11494	15.574
11495	12.964
11496	13.833
11497	14.004
11498	12.976
11499	15.413
11500	11.35
11501	12.024
11502	11.352
11503	12.051
11504	13.587
11505	15.43
11506	12.433
11507	11.81
11508	13.052
11509	15.402
11510	12.716
11511	1.297
11512	1.2878
11513	1.0909
11514	1.1857
11515	1.5228
11516	1.6504
11517	1.9647
11518	1.415
11519	1.3869
11520	1.2471
11521	1.0879
11522	1.1896
11523	2.0319
11524	1.7962
11525	1.1821
11526	1.5523
11527	1.2069
11528	1.4967
11529	1.6429
11530	1.1875
11531	1.5436
11532	2.0614
11533	2.0925
11534	5.2452
11535	4.2339
11536	6.7162
11537	5.7297
11538	5.3139
11539	4.3102
11540	8.0084
11541	7.0362
11542	4.4613
11543	6.6643
11544	7.8001
11545	6.8051
11546	7.9581
11547	5.4418
11548	4.5465
11549	5.7112
11550	6.5413
11551	5.394
11552	8.3866
11553	9.1345
11554	9.451
11555	8.5944
11556	8.9569
11557	8.3903
11558	8.6258
11559	8.1888
11560	8.1963
11561	8.4468
11562	8.6107
11563	8.9534
11564	9.1679
11565	8.2906
11566	8.7546
11567	8.277
11568	8.3932
11569	0.96903
11570	1.116
11571	0.87862
11572	1.0779
11573	0.83563
11574	0.78092
11575	1.3317
11576	1.3046
11577	1.0664
11578	1.0516
11579	0.73573
11580	0.72439
11581	1.1329
11582	1.127
11583	0.64935
11584	0.66505
11585	0.91678
11586	0.66868
11587	0.69705
11588	12.412
11589	12.402
11590	12.336
11591	12.264
11592	12.255
11593	12.264
11594	12.254
11595	11.917
11596	11.952
11597	11.805
11598	11.81
11599	11.866
11600	11.937
11601	12.073
11602	12.122
11603	11.981
11604	11.833
11605	12.069
11606	11.91
11607	11.939
11608	12.067
11609	12.196
11610	11.951
11611	12.071
11612	12.15
11613	12.15
11614	11.902
11615	12.148
11616	11.596
11617	11.769
11618	11.597
11619	11.768
11620	11.236
11621	11.779
11622	11.668
11623	11.82
11624	11.544
11625	11.234
11626	11.544
11627	11.502
11628	11.669
11629	11.779
11630	14.005
11631	14.105
11632	14.103
11633	11.144
11634	12.293
11635	12.298
11636	13.745
11637	13.896
11638	11.226
11639	13.9
11640	11.229
11641	11.137
11642	12.415
11643	12.415
11644	11.727
11645	11.702
11646	11.743
11647	11.703
11648	11.742
11649	11.584
11650	11.906
11651	11.638
11652	11.477
11653	11.68
11654	11.68
11655	11.524
11656	11.585
11657	11.769
11658	11.931
11659	11.904
11660	11.637
11661	11.491
11662	11.767
11663	4.6123
11664	4.7817
11665	4.1003
11666	4.3689
11667	4.2218
11668	4.1958
11669	3.8602
11670	4.148
11671	5.4224
11672	5.8098
11673	5.0168
11674	5.2865
11675	4.9788
11676	5.2542
11677	4.0108
11678	4.2462
11679	4.8155
11680	4.8852
11681	4.3848
11682	5.1899
11683	5.524
11684	5.2086
11685	0.91481
11686	0.94993
11687	0.99521
11688	1.1014
11689	0.82061
11690	1.0883
11691	0.9301
11692	1.1366
11693	0.73851
11694	0.83304
11695	0.99182
11696	1.3113
11697	1.2391
11698	1.2607
11699	0.85713
11700	0.85471
11701	1.0627
11702	0.69269
11703	0.78031
11704	1.093
11705	0.87268
11706	1.2177
11707	1.4025
11708	1.1308
11709	1.3567
11710	0.80634
11711	0.73962
11712	0.84523
11713	1.046
11714	8.9003
11715	8.7144
11716	8.6779
11717	8.869
11718	8.5874
11719	8.703
11720	8.5219
11721	8.6971
11722	9.216
11723	8.6229
11724	8.537
11725	9.2285
11726	8.9301
11727	8.871
11728	9.1271
11729	8.8133
11730	8.8163
11731	8.7239
11732	8.9907
11733	8.8407
11734	8.7285
11735	13.688
11736	13.773
11737	13.771
11738	12.216
11739	9.6256
11740	9.8035
11741	12.211
11742	12.312
11743	11.213
11744	10.276
11745	11.299
11746	9.8029
11747	9.9701
11748	11.295
11749	10.36
11750	11.221
11751	12.313
11752	1.0165
11753	1.0624
11754	1.0324
11755	0.94786
11756	0.87788
11757	0.9436
11758	0.78145
11759	0.88083
11760	0.77886
11761	0.78105
11762	0.76503
11763	0.87094
11764	0.8165
11765	0.93137
11766	0.83448
11767	0.71791
11768	0.71533
11769	5.3802
11770	5.5672
11771	5.5461
11772	6.746
11773	6.5123
11774	6.7463
11775	6.5124
11776	5.9217
11777	5.3889
11778	5.5779
11779	6.0502
11780	6.1207
11781	6.121
11782	5.9214
11783	6.0506
11784	8.155
11785	8.6244
11786	7.8288
11787	8.1369
11788	6.7354
11789	6.6011
11790	8.5066
11791	6.6008
11792	6.5042
11793	8.1666
11794	6.9192
11795	8.1675
11796	7.4385
11797	8.006
11798	8.3313
11799	7.4428
11800	8.2574
11801	8.0125
11802	1.9662
11803	1.0107
11804	0.68109
11805	0.96747
11806	0.69281
11807	2.3832
11808	2.1881
11809	2.6807
11810	2.7596
11811	1.8191
11812	1.247
11813	2.3246
11814	1.2607
11815	1.9063
11816	5.4049
11817	5.3959
11818	5.6042
11819	5.6093
11820	5.5612
11821	6.983
11822	6.7778
11823	6.5492
11824	6.1586
11825	5.9594
11826	5.9396
11827	5.9603
11828	6.7779
11829	6.5487
11830	6.127
11831	6.1582
11832	1.6431
11833	2.0738
11834	1.4737
11835	1.5118
11836	1.7693
11837	1.9675
11838	1.7937
11839	2.1303
11840	1.0926
11841	1.1194
11842	2.041
11843	1.3322
11844	1.7007
11845	0.95229
11846	0.89273
11847	0.92265
11848	2.0122
11849	1.3878
11850	1.0429
11851	1.6783
11852	1.4049
11853	3.4326
11854	3.3119
11855	4.8757
11856	4.8626
11857	4.9034
11858	5.0788
11859	3.3712
11860	4.0584
11861	4.6998
11862	5.0977
11863	4.7476
11864	4.4958
11865	4.8802
11866	4.0715
11867	4.8752
11868	5.0955
11869	4.5227
11870	4.4151
11871	3.7143
11872	3.6752
11873	4.6011
11874	5.2407
11875	3.7743
11876	4.0727
11877	4.8029
11878	4.9918
11879	4.6694
11880	3.9828
11881	4.7065
11882	4.3853
11883	5.1436
11884	5.2348
11885	4.7793
11886	5.2786
11887	5.2651
11888	6.0147
11889	5.7779
11890	5.2171
11891	4.7464
11892	4.8038
11893	4.5885
11894	0.85347
11895	0.81541
11896	0.77193
11897	0.83336
11898	0.98992
11899	1.0542
11900	0.93304
11901	0.89546
11902	0.77611
11903	1.1837
11904	1.1216
11905	1.1654
11906	1.1622
11907	1.0278
11908	1.0777
11909	0.90195
11910	0.96199
11911	0.85946
11912	1.0752
11913	1.0695
11914	0.93501
11915	0.96086
11916	0.79075
11917	0.82758
11918	0.87393
11919	0.83448
11920	0.90216
11921	1.0411
11922	0.9907
11923	1.0054
11924	1.1019
11925	1.1589
11926	1.0724
11927	1.0652
11928	1.1116
11929	1.0318
11930	1.587
11931	1.7022
11932	1.5935
11933	1.7201
11934	1.6496
11935	1.5376
11936	1.5592
11937	1.6765
11938	1.4499
11939	1.4558
11940	1.5499
11941	1.6658
11942	1.5501
11943	1.6542
11944	1.4279
11945	1.4454
11946	13.339
11947	13.854
11948	14.169
11949	13.852
11950	14.24
11951	13.972
11952	12.813
11953	13.977
11954	14.101
11955	14.539
11956	14.659
11957	14.376
11958	13.557
11959	12.784
11960	12.813
11961	14.592
11962	13.418
11963	13.976
11964	14.1
11965	13.968
11966	14.452
11967	13.553
11968	10.619
11969	10.721
11970	10.621
11971	11.385
11972	10.439
11973	11.386
11974	12.714
11975	12.706
11976	11.289
11977	10.485
11978	10.436
11979	11.887
11980	11.889
11981	12.704
11982	11.055
11983	11.626
11984	12.202
11985	11.626
11986	11.288
11987	11.625
11988	11.815
11989	11.319
11990	11.374
11991	11.996
11992	11.613
11993	11.468
11994	11.736
11995	11.554
11996	11.32
11997	11.736
11998	11.555
11999	11.608
12000	11.814
12001	11.812
12002	11.686
12003	11.687
12004	11.361
12005	11.253
12006	11.254
12007	11.145
12008	11.721
12009	11.65
12010	11.721
12011	11.652
12012	11.584
12013	11.523
12014	11.584
12015	11.315
12016	11.217
12017	11.671
12018	11.479
12019	11.286
12020	11.315
12021	11.516
12022	11.498
12023	11.519
12024	11.477
12025	11.427
12026	3.1457
12027	3.4426
12028	3.1289
12029	3.4966
12030	2.7186
12031	2.6965
12032	4.0143
12033	4.2882
12034	2.4125
12035	2.5131
12036	2.7377
12037	3.0016
12038	3.1498
12039	4.2464
12040	3.7184
12041	2.948
12042	3.7038
12043	3.3345
12044	3.067
12045	0.37002
12046	0.36709
12047	0.44721
12048	0.28537
12049	0.24544
12050	0.301
12051	0.45626
12052	0.40981
12053	0.35034
12054	0.35388
12055	0.3951
12056	0.40512
12057	0.36371
12058	0.31664
12059	0.36877
12060	0.32023
12061	2.877
12062	2.6401
12063	2.7194
12064	2.4988
12065	2.5663
12066	2.6687
12067	3.1133
12068	2.8556
12069	3.0319
12070	2.8049
12071	3.0572
12072	3.4818
12073	3.0705
12074	3.2917
12075	3.3983
12076	3.868
12077	1.4077
12078	1.6221
12079	1.6493
12080	1.4073
12081	1.3855
12082	1.5626
12083	1.5728
12084	1.1304
12085	1.1953
12086	1.2477
12087	1.1468
12088	1.25
12089	1.2835
12090	1.407
12091	1.2535
12092	1.2312
12093	1.2591
12094	1.4698
12095	1.1995
12096	1.273
12097	1.3655
12098	1.6716
12099	2.1645
12100	2.1864
12101	2.2053
12102	2.3464
12103	2.3478
12104	2.4274
12105	2.4525
12106	2.0502
12107	2.1624
12108	2.1971
12109	2.4376
12110	2.226
12111	5.6111
12112	5.625
12113	6.0388
12114	5.9846
12115	6.587
12116	6.3798
12117	6.3818
12118	5.627
12119	5.6073
12120	5.7915
12121	5.7779
12122	6.0311
12123	5.7959
12124	6.0868
12125	6.2094
12126	6.3437
12127	6.5125
12128	6.1051
12129	3.6925
12130	3.9137
12131	6.0094
12132	5.7219
12133	5.9134
12134	5.5863
12135	4.17
12136	5.914
12137	5.5788
12138	5.483
12139	5.8467
12140	4.8129
12141	4.6993
12142	4.1393
12143	4.3364
12144	5.4557
12145	5.2512
12146	4.9688
12147	5.2867
12148	5.2974
12149	4.7958
12150	5.2236
12151	4.9932
12152	4.2572
12153	4.3161
12154	4.8188
12155	4.0263
12156	4.1448
12157	4.764
12158	3.9112
12159	4.2008
12160	4.1888
12161	4.3812
12162	4.2348
12163	3.9361
12164	3.9194
12165	4.2114
12166	2.318
12167	1.7453
12168	2.9893
12169	2.6617
12170	2.2579
12171	1.7868
12172	1.7167
12173	2.2321
12174	2.996
12175	2.6383
12176	7.5021
12177	7.9884
12178	7.0175
12179	7.5038
12180	6.6481
12181	6.5327
12182	8.6351
12183	8.1731
12184	7.431
12185	6.7816
12186	6.6371
12187	8.5132
12188	8.3342
12189	8.0118
12190	8.263
12191	8.0071
12192	7.4274
12193	8.1709
12194	0.1291
12195	0.22995
12196	0.34532
12197	0.41819
12198	0.1105
12199	0.21825
12200	8.0021e-002
12201	0.48046
12202	0.58975
12203	0.2321
12204	0.13278
12205	6.9708e-002
12206	0.2839
12207	0.36839
12208	3.3766
12209	3.7787
12210	2.4984
12211	3.0142
12212	3.3922
12213	2.6123
12214	3.3393
12215	2.6674
12216	4.1588
12217	3.8506
12218	3.7316
12219	2.6781
12220	4.0932
12221	3.7496
12222	3.8286
12223	3.4295
12224	3.3186
12225	3.5339
12226	3.8949
12227	4.0688
12228	2.076
12229	2.1443
12230	2.0836
12231	2.1623
12232	2.1445
12233	2.3874
12234	2.1379
12235	1.8409
12236	1.8489
12237	0.71126
12238	0.74038
12239	0.72985
12240	0.75931
12241	0.70739
12242	0.77584
12243	0.68194
12244	0.77777
12245	0.74471
12246	1.9724
12247	2.0999
12248	1.7455
12249	1.6616
12250	1.5415
12251	1.567
12252	2.0798
12253	1.9089
12254	1.7701
12255	1.9502
12256	1.7779
12257	1.6939
12258	1.6768
12259	1.814
12260	1.7824
12261	1.868
12262	1.5678
12263	1.6096
12264	1.3506
12265	1.1467
12266	1.8278
12267	1.2882
12268	1.1398
12269	1.4084
12270	1.6919
12271	1.6268
12272	1.8071
12273	1.7404
12274	1.7634
12275	1.5525
12276	1.052
12277	1.1865
12278	1.7352
12279	1.8831
12280	1.5161
12281	1.8744
12282	1.0235
12283	1.0217
12284	0.94844
12285	1.1332
12286	1.3993
12287	1.0974
12288	0.97164
12289	0.96741
12290	1.2211
12291	1.0222
12292	12.294
12293	12.249
12294	12.172
12295	12.129
12296	11.722
12297	11.823
12298	11.829
12299	11.671
12300	11.763
12301	12.182
12302	12.05
12303	12.17
12304	12.128
12305	11.721
12306	11.822
12307	11.851
12308	11.877
12309	11.964
12310	12.042
12311	11.941
12312	11.967
12313	11.853
12314	11.942
12315	11.964
12316	0.17959
12317	0.35444
12318	0.3836
12319	0.39553
12320	0.47742
12321	0.34891
12322	0.22763
12323	0.28098
12324	0.2765
12325	0.79873
12326	0.8619
12327	0.75838
12328	0.85613
12329	0.7456
12330	0.78242
12331	0.80759
12332	0.8376
12333	0.87222
12334	0.80474
12335	8.3418
12336	8.232
12337	8.9717
12338	8.6821
12339	8.1867
12340	7.9691
12341	8.1244
12342	8.8754
12343	8.4253
12344	8.1756
12345	8.4128
12346	8.5803
12347	6.4421
12348	6.8062
12349	4.6627
12350	4.9494
12351	6.0816
12352	5.9976
12353	4.6158
12354	4.8824
12355	6.0189
12356	6.5037
12357	5.2996
12358	5.1232
12359	14.117
12360	13.595
12361	13.315
12362	13.316
12363	13.101
12364	13.067
12365	14.61
12366	14.641
12367	14.117
12368	14.697
12369	14.219
12370	13.068
12371	14.047
12372	15.148
12373	14.698
12374	14.22
12375	15.218
12376	14.611
12377	15.284
12378	14.724
12379	14.047
12380	15.431
12381	14.723
12382	15.361
12383	10.346
12384	10.425
12385	10.346
12386	11.155
12387	11.854
12388	11.28
12389	11.851
12390	11.28
12391	12.091
12392	12.66
12393	12.09
12394	12.031
12395	10.582
12396	11.394
12397	12.763
12398	10.707
12399	11.388
12400	12.03
12401	1.0856
12402	1.3139
12403	1.2268
12404	1.3267
12405	1.0663
12406	1.1999
12407	1.1389
12408	1.2353
12409	1.2587
12410	1.3882
12411	1.0717
12412	1.1133
12413	1.3731
12414	1.3052
12415	5.008
12416	5.1995
12417	5.249
12418	5.4379
12419	5.2492
12420	5.4383
12421	5.4196
12422	7.0524
12423	5.8808
12424	5.8815
12425	6.7973
12426	6.7971
12427	6.5473
12428	6.5472
12429	6.0774
12430	6.5409
12431	6.0771
12432	1.1033
12433	0.81657
12434	1.2742
12435	0.70755
12436	1.1013
12437	1.4917
12438	1.1989
12439	1.3372
12440	1.4788
12441	0.75511
12442	1.7115
12443	1.5632
12444	0.71195
12445	0.78092
12446	1.1803
12447	1.2718
12448	1.3582
12449	1.0088
12450	1.2737
12451	7.0254
12452	6.7535
12453	6.7643
12454	6.4955
12455	6.48
12456	6.7638
12457	6.4942
12458	4.9041
12459	5.1104
12460	6.5065
12461	5.3504
12462	5.1102
12463	6.0012
12464	5.7975
12465	5.8126
12466	5.35
12467	6.0308
12468	6.0002
12469	5.7962
12470	1.3219
12471	2.2352
12472	1.0537
12473	2.0617
12474	1.8651
12475	1.6389
12476	2.2623
12477	2.579
12478	2.6811
12479	1.9893
12480	1.2909
12481	1.6707
12482	2.1234
12483	6.1718
12484	5.933
12485	5.9434
12486	6.1799
12487	5.7171
12488	5.9537
12489	5.7424
12490	5.7536
12491	4.9376
12492	5.1536
12493	5.3036
12494	5.3023
12495	4.7255
12496	4.9394
12497	5.1162
12498	3.6888
12499	3.6497
12500	3.1735
12501	3.4309
12502	3.6602
12503	3.6035
12504	3.1618
12505	2.8497
12506	2.9244
12507	3.1224
12508	3.066
12509	2.8594
12510	2.8479
12511	2.6014
12512	3.1799
12513	3.0507
12514	3.3621
12515	3.0765
12516	3.402
12517	7.0907
12518	7.2102
12519	6.8067
12520	7.1935
12521	6.8685
12522	6.9839
12523	6.9555
12524	7.0869
12525	7.1705
12526	6.9875
12527	6.9568
12528	7.1165
12529	6.8367
12530	7.1503
12531	6.7919
12532	6.9716
12533	0.67165
12534	0.78102
12535	0.65876
12536	0.56659
12537	0.45254
12538	0.657
12539	0.77433
12540	0.56452
12541	0.85298
12542	0.74615
12543	0.85578
12544	0.57853
12545	0.48624
12546	0.42498
12547	0.84407
12548	0.79485
12549	0.47996
12550	0.55825
12551	12.562
12552	12.71
12553	12.556
12554	12.636
12555	12.319
12556	12.083
12557	12.085
12558	12.139
12559	12.323
12560	14.001
12561	14.581
12562	14.393
12563	15.158
12564	13.357
12565	13.869
12566	15.133
12567	14.277
12568	13.73
12569	13.659
12570	13.152
12571	12.967
12572	13.459
12573	14.173
12574	13.657
12575	14.177
12576	14.981
12577	14.214
12578	14.595
12579	14.051
12580	14.835
12581	2.9771
12582	2.1607
12583	2.4666
12584	1.5724
12585	2.9844
12586	1.226
12587	2.2032
12588	2.7169
12589	1.1952
12590	1.1649
12591	2.1275
12592	11.686
12593	11.686
12594	11.651
12595	11.652
12596	11.257
12597	11.149
12598	11.363
12599	11.257
12600	11.517
12601	11.499
12602	11.518
12603	11.218
12604	11.315
12605	11.478
12606	11.428
12607	11.287
12608	11.316
12609	11.479
12610	4.3393
12611	5.3534
12612	5.4191
12613	4.4153
12614	5.5432
12615	4.647
12616	6.902
12617	8.8073
12618	9.0375
12619	6.817
12620	5.8336
12621	9.08
12622	8.8436
12623	4.5633
12624	7.1371
12625	5.8129
12626	6.461
12627	4.9868
12628	6.3123
12629	5.8223
12630	6.257
12631	5.924
12632	4.3733
12633	5.0906
12634	16.025
12635	18.188
12636	18.03
12637	18.651
12638	16.867
12639	17.49
12640	17.26
12641	14.547
12642	14.574
12643	18.258
12644	17.259
12645	18.59
12646	16.868
12647	17.491
12648	15.701
12649	17.375
12650	16.343
12651	14.577
12652	18.389
12653	17.372
12654	18.46
12655	16.342
12656	7.6227
12657	8.2694
12658	8.5527
12659	8.3754
12660	8.1566
12661	8.6271
12662	8.2831
12663	6.9264
12664	7.6203
12665	8.2335
12666	9.1187
12667	9.2109
12668	9.1598
12669	9.1613
12670	7.9039
12671	7.2582
12672	8.6625
12673	8.3103
12674	7.5921
12675	8.7499
12676	8.2608
12677	7.9233
12678	1.3254
12679	1.4765
12680	1.4122
12681	1.1898
12682	1.2995
12683	1.422
12684	1.1315
12685	0.86168
12686	0.72629
12687	0.68592
12688	0.56738
12689	1.2014
12690	1.275
12691	1.0744
12692	1.2895
12693	0.98224
12694	0.78862
12695	0.65374
12696	3.988
12697	3.6728
12698	3.3507
12699	5.5286
12700	3.8454
12701	3.6715
12702	5.5626
12703	5.5909
12704	5.5327
12705	5.2934
12706	5.5531
12707	5.6642
12708	5.6283
12709	5.2803
12710	3.7198
12711	3.9119
12712	5.4564
12713	5.2489
12714	5.5819
12715	5.4872
12716	4.1697
12717	4.1647
12718	4.3386
12719	4.6486
12720	4.9716
12721	4.7996
12722	5.2326
12723	4.8093
12724	4.7019
12725	0.68744
12726	0.67396
12727	0.39891
12728	0.37883
12729	0.52949
12730	0.5394
12731	0.51443
12732	0.57636
12733	0.3345
12734	0.4364
12735	0.3817
12736	0.83926
12737	0.84617
12738	0.71424
12739	0.75778
12740	0.75993
12741	0.78455
12742	0.66878
12743	0.65018
12744	0.61927
12745	0.72367
12746	0.64266
12747	0.5741
12748	0.65351
12749	0.67616
12750	0.64916
12751	0.57912
12752	0.63935
12753	0.57728
12754	0.59237
12755	5.6366
12756	6.4118
12757	5.49
12758	5.5752
12759	4.7589
12760	6.49
12761	5.5695
12762	4.9643
12763	4.2382
12764	5.6368
12765	4.3258
12766	4.9558
12767	1.9443
12768	1.9709
12769	1.2895
12770	1.2146
12771	2.4361
12772	2.3046
12773	0.96537
12774	2.2521
12775	1.957
12776	2.4859
12777	2.2728
12778	1.9287
12779	2.5432
12780	1.9806
12781	1.5
12782	1.8214
12783	1.9254
12784	1.7858
12785	2.0153
12786	2.0268
12787	2.3951
12788	2.0321
12789	1.6939
12790	2.2635
12791	1.7916
12792	2.3536
12793	2.4908
12794	1.9347
12795	2.1278
12796	2.5342
12797	2.5525
12798	2.5331
12799	2.14
12800	1.7285
12801	2.2018
12802	1.3326
12803	1.3247
12804	2.4314
12805	1.8969
12806	1.8216
12807	2.3186
12808	0.74745
12809	0.58561
12810	0.95398
12811	6.4085
12812	6.2586
12813	6.2777
12814	5.5936
12815	5.5978
12816	5.3888
12817	5.3734
12818	5.942
12819	5.055
12820	4.4752
12821	4.836
12822	4.247
12823	5.6094
12824	4.2358
12825	4.8362
12826	0.90532
12827	0.91692
12828	0.8527
12829	0.8783
12830	0.98794
12831	1.0116
12832	0.77875
12833	0.84109
12834	0.83101
12835	0.93613
12836	1.0355
12837	1.0254
12838	0.97667
12839	0.95589
12840	0.78466
12841	0.79793
12842	0.88871
12843	0.88992
12844	0.90527
12845	0.72612
12846	0.70403
12847	0.75136
12848	0.76557
12849	0.87312
12850	0.95324
12851	0.97016
12852	0.91336
12853	0.98983
12854	1.0015
12855	0.75506
12856	8.8522
12857	9.1828
12858	9.1924
12859	8.7953
12860	9.0976
12861	8.838
12862	8.9825
12863	8.7928
12864	8.7163
12865	8.7016
12866	2.1509
12867	3.0828
12868	3.4059
12869	2.3648
12870	2.0615
12871	2.9076
12872	3.183
12873	2.1061
12874	2.5656
12875	2.4434
12876	3.292
12877	3.0168
12878	2.4412
12879	2.8419
12880	3.0184
12881	2.6586
12882	2.6963
12883	7.1292
12884	6.9919
12885	6.1718
12886	6.4797
12887	7.1067
12888	5.6333
12889	6.1895
12890	3.9827
12891	5.2591
12892	4.4324
12893	5.3187
12894	5.3312
12895	4.566
12896	4.278
12897	4.5657
12898	4.6393
12899	1.4616
12900	1.7772
12901	2.1805
12902	1.7591
12903	1.8108
12904	2.0414
12905	1.4108
12906	1.3969
12907	1.6356
12908	1.3652
12909	1.54
12910	1.8205
12911	2.0183
12912	1.317
12913	1.2756
12914	1.4173
12915	0.63106
12916	0.61875
12917	0.77763
12918	0.64191
12919	0.6176
12920	0.57366
12921	0.7711
12922	0.55064
12923	0.55722
12924	0.53735
12925	0.52221
12926	0.80086
12927	0.84714
12928	0.71178
12929	0.68674
12930	0.63167
12931	0.5325
12932	0.61134
12933	0.68529
12934	0.7548
12935	3.185
12936	3.3801
12937	2.5099
12938	2.8907
12939	3.2448
12940	3.4134
12941	3.2811
12942	2.8447
12943	2.6315
12944	3.0274
12945	2.821
12946	2.859
12947	4.6745
12948	3.8708
12949	4.3478
12950	4.845
12951	3.3661
12952	3.5933
12953	3.9705
12954	3.427
12955	3.9224
12956	4.4058
12957	3.6958
12958	4.3645
12959	5.1712
12960	3.4215
12961	3.9525
12962	3.4527
12963	4.4122
12964	11.227
12965	11.22
12966	11.38
12967	11.375
12968	10.849
12969	10.985
12970	11.042
12971	11.042
12972	11.075
12973	11.345
12974	11.226
12975	11.223
12976	10.777
12977	10.987
12978	0.65489
12979	0.57644
12980	0.51541
12981	0.49753
12982	0.57329
12983	0.49502
12984	0.65741
12985	0.72322
12986	0.83645
12987	0.67967
12988	0.77251
12989	0.65629
12990	0.68101
12991	0.60128
12992	0.83284
12993	0.72785
12994	0.88833
12995	0.90978
12996	0.83659
12997	0.85057
12998	0.96747
12999	0.98592
13000	0.84858
13001	0.92182
13002	11.079
13003	11.106
13004	11.23
13005	11.265
13006	11.171
13007	11.23
13008	11.266
13009	11.312
13010	11.384
13011	11.661
13012	11.614
13013	11.583
13014	11.384
13015	11.383
13016	11.527
13017	11.387
13018	11.614
13019	11.561
13020	11.525
13021	11.534
13022	14.13
13023	14.895
13024	13.728
13025	14.299
13026	15.014
13027	13.785
13028	14.347
13029	13.787
13030	14.335
13031	13.095
13032	13.673
13033	14.809
13034	14.164
13035	14.216
13036	15.097
13037	13.426
13038	14.899
13039	13.768
13040	13.745
13041	15.044
13042	14.136
13043	14.21
13044	6.4722
13045	9.7055
13046	9.5972
13047	7.2892
13048	8.1245
13049	8.5657
13050	7.5534
13051	6.3324
13052	9.595
13053	8.1046
13054	7.1739
13055	7.5526
13056	6.5346
13057	6.2562
13058	7.1773
13059	8.1063
13060	4.0975
13061	4.361
13062	4.0957
13063	4.3642
13064	4.4432
13065	4.6977
13066	4.4409
13067	4.6979
13068	5.7043
13069	5.7279
13070	4.7218
13071	5.3076
13072	5.9307
13073	5.1847
13074	5.1544
13075	5.1533
13076	5.7285
13077	5.3686
13078	5.3072
13079	4.1398
13080	3.7958
13081	3.7999
13082	3.5502
13083	3.6812
13084	4.8683
13085	4.1395
13086	3.6822
13087	3.9991
13088	3.5672
13089	3.6685
13090	3.6474
13091	4.8673
13092	4.6372
13093	4.0043
13094	3.9746
13095	4.186
13096	4.1831
13097	3.9859
13098	4.636
13099	5.9125
13100	5.9466
13101	5.3274
13102	5.2909
13103	5.4797
13104	6.1411
13105	4.6897
13106	5.0019
13107	5.1176
13108	6.3984
13109	6.2442
13110	5.1237
13111	6.0651
13112	5.6016
13113	6.1677
13114	6.2219
13115	6.5004
13116	6.3509
13117	6.3278
13118	1.6561
13119	1.9487
13120	1.8941
13121	1.4077
13122	1.5834
13123	1.6174
13124	2.1109
13125	2.1172
13126	2.0097
13127	1.8034
13128	1.9402
13129	1.8502
13130	1.9147
13131	1.9108
13132	1.8386
13133	1.6252
13134	1.6646
13135	1.576
13136	1.6884
13137	1.8064
13138	1.6199
13139	1.7308
13140	1.6604
13141	1.7617
13142	1.7799
13143	1.7642
13144	10.8
13145	11.799
13146	11.066
13147	11.798
13148	11.063
13149	12.146
13150	12.247
13151	13.248
13152	12.145
13153	12.121
13154	13.111
13155	11.21
13156	10.03
13157	11.211
13158	11.241
13159	12.251
13160	10.202
13161	2.7582
13162	2.7061
13163	2.9052
13164	2.9429
13165	2.9078
13166	2.8477
13167	3.353
13168	3.3969
13169	3.7006
13170	3.3228
13171	2.7863
13172	3.5454
13173	3.6752
13174	3.6266
13175	3.7757
13176	3.3925
13177	3.4896
13178	0.84723
13179	0.93276
13180	0.82528
13181	0.76875
13182	0.75569
13183	0.84274
13184	0.72675
13185	0.99766
13186	0.91143
13187	0.99957
13188	0.71431
13189	0.84853
13190	0.99135
13191	0.98719
13192	0.93248
13193	0.57578
13194	0.65483
13195	0.62963
13196	0.67596
13197	0.73726
13198	0.71624
13199	3.5153
13200	3.9327
13201	3.4356
13202	3.8676
13203	2.8521
13204	3.2459
13205	2.7757
13206	3.1491
13207	3.8676
13208	4.1696
13209	3.9123
13210	3.5314
13211	3.3912
13212	2.6234
13213	3.7601
13214	4.1017
13215	4.0761
13216	3.3283
13217	1.8133
13218	2.0119
13219	1.8232
13220	1.8028
13221	1.765
13222	1.4102
13223	1.9471
13224	1.706
13225	1.3626
13226	1.2671
13227	1.677
13228	1.4799
13229	1.6395
13230	1.7888
13231	7.8277
13232	6.3556
13233	6.3593
13234	4.8741
13235	5.8698
13236	5.8708
13237	4.3829
13238	7.1772
13239	4.4557
13240	7.1795
13241	5.8518
13242	4.604
13243	5.8514
13244	4.6842
13245	0.74518
13246	0.74375
13247	0.71729
13248	0.68043
13249	0.86643
13250	0.8856
13251	0.63179
13252	0.74654
13253	0.65817
13254	0.70146
13255	0.67235
13256	0.74298
13257	3.2153
13258	2.9477
13259	4.2551
13260	2.4401
13261	3.11
13262	3.9909
13263	2.6496
13264	2.7019
13265	3.1086
13266	3.4922
13267	2.5278
13268	2.3225
13269	1.1462
13270	1.1085
13271	1.5364
13272	1.9126
13273	2.0803
13274	2.6281
13275	2.1911
13276	1.9162
13277	2.3639
13278	3.098
13279	2.1686
13280	2.3886
13281	3.022
13282	3.1644
13283	2.9878
13284	1.8819
13285	1.4656
13286	1.7015
13287	2.4089
13288	1.9908
13289	1.4468
13290	2.8262
13291	1.7737
13292	2.0108
13293	1.984
13294	2.904
13295	3.62
13296	3.1403
13297	3.9761
13298	3.4602
13299	3.6074
13300	4.4861
13301	4.1043
13302	2.7417
13303	3.9631
13304	4.5145
13305	3.842
13306	3.9012
13307	4.7099
13308	3.2322
13309	4.5739
13310	4.7433
13311	2.1801
13312	1.8871
13313	2.3709
13314	2.4684
13315	2.6576
13316	2.1568
13317	1.7916
13318	2.6134
13319	4.5018
13320	4.0592
13321	4.2035
13322	4.5456
13323	4.4372
13324	5.3245
13325	4.03
13326	4.9652
13327	4.2729
13328	3.7409
13329	4.8093
13330	3.9924
13331	11.357
13332	11.3
13333	11.586
13334	11.299
13335	11.224
13336	12.064
13337	11.807
13338	11.684
13339	11.971
13340	11.683
13341	11.134
13342	11.59
13343	12.079
13344	11.534
13345	11.536
13346	11.141
13347	11.137
13348	11.806
13349	11.796
13350	11.767
13351	11.797
13352	11.726
13353	11.702
13354	11.744
13355	11.702
13356	11.743
13357	11.774
13358	11.638
13359	11.634
13360	11.476
13361	11.68
13362	11.768
13363	11.635
13364	11.493
13365	11.765
13366	11.679
13367	0.61957
13368	0.7229
13369	0.6283
13370	0.86765
13371	0.95047
13372	0.92574
13373	0.94059
13374	0.9522
13375	0.58093
13376	0.72118
13377	0.70634
13378	0.6976
13379	0.81319
13380	0.48021
13381	0.56136
13382	0.56935
13383	0.65988
13384	12.576
13385	12.802
13386	12.181
13387	12.06
13388	12.308
13389	12.183
13390	12.735
13391	12.103
13392	12.454
13393	12.593
13394	12.242
13395	12.578
13396	12.157
13397	12.248
13398	12.52
13399	12.459
13400	0.63653
13401	0.62362
13402	0.69426
13403	0.76286
13404	0.75334
13405	0.80023
13406	0.84423
13407	0.90338
13408	1.0862
13409	1.0159
13410	0.71339
13411	0.71796
13412	1.1103
13413	1.0433
13414	0.83116
13415	0.95042
13416	0.86965
13417	1.0879
13418	0.89359
13419	1.0077
13420	0.95596
13421	12.562
13422	9.3553
13423	9.5506
13424	11.012
13425	11.267
13426	9.4729
13427	9.3131
13428	9.4978
13429	10.933
13430	12.716
13431	11.282
13432	14.592
13433	14.544
13434	12.571
13435	12.677
13436	14.615
13437	11.392
13438	12.595
13439	0.65135
13440	0.58883
13441	0.40236
13442	0.40586
13443	0.59275
13444	0.53504
13445	0.60163
13446	0.6415
13447	0.5134
13448	0.50684
13449	0.44069
13450	0.39361
13451	0.45544
13452	0.47548
13453	0.29824
13454	0.29358
13455	0.46862
13456	0.51594
13457	0.50166
13458	0.37011
13459	0.40612
13460	0.42794
13461	6.7894
13462	7.0264
13463	5.3147
13464	5.5388
13465	7.0587
13466	6.7893
13467	6.8197
13468	6.5639
13469	5.9432
13470	6.8197
13471	6.5641
13472	6.5763
13473	5.5414
13474	5.5164
13475	6.1247
13476	5.9435
13477	6.1245
13478	3.6885
13479	3.4228
13480	3.1512
13481	3.4342
13482	3.6903
13483	2.9498
13484	2.9585
13485	3.3387
13486	3.0277
13487	3.6332
13488	2.936
13489	2.8334
13490	3.0314
13491	3.0237
13492	3.6087
13493	3.7442
13494	2.785
13495	2.9681
13496	1.9723
13497	2.1325
13498	1.1027
13499	1.1199
13500	2.0844
13501	1.6307
13502	1.8358
13503	2.0064
13504	2.0228
13505	1.7923
13506	2.0348
13507	2.1103
13508	2.0654
13509	1.7608
13510	2.0787
13511	1.792
13512	14.585
13513	13.803
13514	14.586
13515	13.763
13516	11.544
13517	12.21
13518	11.246
13519	11.247
13520	13.102
13521	9.0213
13522	10.405
13523	12.343
13524	10.942
13525	11.293
13526	1.8457
13527	1.7118
13528	1.3865
13529	1.8988
13530	1.6869
13531	1.1545
13532	1.1174
13533	1.3304
13534	1.4571
13535	1.737
13536	1.774
13537	1.2653
13538	1.1599
13539	1.005
13540	1.1368
13541	1.1821
13542	1.3532
13543	1.9916
13544	2.1929
13545	2.3408
13546	2.7372
13547	2.5019
13548	2.1352
13549	1.8873
13550	2.3937
13551	2.5457
13552	2.6476
13553	3.0647
13554	2.202
13555	2.337
13556	2.1239
13557	2.1711
13558	2.4086
13559	2.7104
13560	2.4644
13561	2.6016
13562	1.8731
13563	1.8758
13564	1.5666
13565	1.5599
13566	1.6839
13567	1.5111
13568	1.8761
13569	1.7133
13570	1.894
13571	1.5965
13572	1.7809
13573	1.6972
13574	1.889
13575	1.7567
13576	0.76473
13577	0.73953
13578	0.78127
13579	0.72663
13580	0.7317
13581	0.69053
13582	0.73455
13583	0.73647
13584	0.74833
13585	0.6829
13586	0.74367
13587	0.74998
13588	0.6775
13589	0.71829
13590	12.852
13591	12.646
13592	12.768
13593	12.851
13594	12.642
13595	13.647
13596	13.394
13597	13.652
13598	13.392
13599	14.266
13600	14.087
13601	14.874
13602	13.757
13603	14.309
13604	14.761
13605	14.108
13606	13.747
13607	14.325
13608	14.984
13609	13.731
13610	14.095
13611	14.862
13612	14.165
13613	15.012
13614	14.181
13615	13.735
13616	15.056
13617	11.993
13618	12.65
13619	12.08
13620	12.754
13621	12.084
13622	11.404
13623	13.107
13624	13.135
13625	11.383
13626	11.384
13627	13.058
13628	13.109
13629	12.023
13630	11.278
13631	12.046
13632	11.351
13633	10.561
13634	11.273
13635	10.498
13636	12.02
13637	5.0629
13638	4.3544
13639	4.3048
13640	5.2075
13641	4.9733
13642	4.4611
13643	4.6219
13644	4.49
13645	4.6175
13646	4.6736
13647	4.6198
13648	5.1511
13649	4.9704
13650	4.9468
13651	3.8057
13652	3.9908
13653	3.8052
13654	4.7505
13655	4.7509
13656	4.2942
13657	4.1964
13658	3.9898
13659	4.2949
13660	7.5341
13661	7.1809
13662	6.587
13663	6.5186
13664	6.2632
13665	6.5334
13666	6.4102
13667	5.9737
13668	5.5161
13669	5.7237
13670	4.995
13671	5.2955
13672	3.7025
13673	4.298
13674	4.4925
13675	4.2053
13676	4.1669
13677	0.96397
13678	1.2015
13679	0.79343
13680	0.74663
13681	1.2501
13682	1.3058
13683	0.63288
13684	0.51409
13685	0.89289
13686	0.60163
13687	1.241
13688	1.3174
13689	1.2049
13690	1.2641
13691	1.1598
13692	5.9424
13693	6.1397
13694	5.9441
13695	4.8154
13696	5.0426
13697	5.0506
13698	4.4328
13699	4.5951
13700	5.0381
13701	5.0342
13702	4.5912
13703	7.4356e-002
13704	4.864e-002
13705	6.8329e-002
13706	3.7182e-002
13707	0.18824
13708	0.21026
13709	8.6712e-002
13710	8.0617e-002
13711	5.4232e-002
13712	0.11346
13713	0.45716
13714	0.33831
13715	4.6069e-002
13716	9.9298e-002
13717	0.29141
13718	0.27739
13719	0.38721
13720	6.4926e-002
13721	0.22524
13722	2.6475
13723	1.0779
13724	1.1901
13725	1.6122
13726	2.7567
13727	2.5262
13728	2.2566
13729	2.2562
13730	1.819
13731	2.0331
13732	2.183
13733	14.255
13734	15.078
13735	13.794
13736	14.362
13737	13.889
13738	13.474
13739	15.181
13740	14.487
13741	14.42
13742	15.231
13743	15.021
13744	14.284
13745	13.405
13746	13.864
13747	15.168
13748	14.911
13749	14.244
13750	13.758
13751	14.341
13752	14.279
13753	13.213
13754	2.6693
13755	3.337
13756	2.4978
13757	2.6801
13758	2.7625
13759	2.897
13760	3.7204
13761	4.5651
13762	3.8645
13763	3.1108
13764	3.1473
13765	2.7332
13766	3.9067
13767	3.5174
13768	4.4516
13769	4.1522
13770	3.0571
13771	3.4304
13772	13.242
13773	13.529
13774	13.104
13775	13.124
13776	13.387
13777	13.126
13778	12.556
13779	12.771
13780	12.904
13781	12.901
13782	13.174
13783	13.312
13784	12.484
13785	12.768
13786	3.0654
13787	3.0818
13788	3.2937
13789	3.0733
13790	3.343
13791	2.6952
13792	2.7617
13793	2.441
13794	2.9587
13795	2.1955
13796	2.21
13797	2.7407
13798	2.8521
13799	3.0742
13800	2.2161
13801	2.2918
13802	2.529
13803	2.1083
13804	2.0423
13805	2.6589
13806	2.6172
13807	2.4311
13808	2.6435
13809	0.31059
13810	0.3048
13811	0.75351
13812	0.63065
13813	0.35127
13814	0.37685
13815	0.35365
13816	0.36104
13817	0.6315
13818	0.50911
13819	0.84103
13820	0.39048
13821	0.42407
13822	0.402
13823	0.38997
13824	0.71075
13825	0.57063
13826	0.4361
13827	0.43233
13828	0.49186
13829	0.58748
13830	0.54997
13831	0.8117
13832	0.67091
13833	0.53957
13834	0.75202
13835	0.68787
13836	0.58649
13837	6.2986
13838	6.1901
13839	6.4976
13840	6.927
13841	6.8937
13842	8.314
13843	7.8152
13844	7.1786
13845	8.2219
13846	8.113
13847	7.9019
13848	7.8963
13849	8.2594
13850	7.5382
13851	8.8207
13852	8.7379
13853	7.863
13854	9.0292
13855	9.0886
13856	8.2041
13857	2.2795
13858	1.797
13859	1.8144
13860	2.2321
13861	2.5939
13862	1.9411
13863	2.2804
13864	2.3546
13865	1.5654
13866	1.8341
13867	1.6934
13868	1.9507
13869	6.5256
13870	6.347
13871	7.3365
13872	6.5632
13873	6.55
13874	6.8697
13875	7.0878
13876	6.9735
13877	6.9743
13878	7.1452
13879	5.0898
13880	4.7051
13881	4.8303
13882	6.1898
13883	7.2771
13884	6.6346
13885	7.2511
13886	5.7255
13887	6.1113
13888	6.9896
13889	4.8246
13890	4.4996
13891	4.3723
13892	6.0956
13893	4.6526
13894	4.5293
13895	6.5039
13896	5.1393
13897	5.2234
13898	5.9053
13899	6.4169
13900	6.1953
13901	6.5536
13902	6.3754
13903	6.3973
13904	4.9218
13905	6.544
13906	4.3255
13907	4.3558
13908	3.9951
13909	3.8213
13910	3.7711
13911	3.922
13912	3.9216
13913	2.8122
13914	2.6609
13915	3.2001
13916	2.9958
13917	2.4258
13918	2.6095
13919	3.2024
13920	3.0387
13921	2.5707
13922	3.3412
13923	3.2213
13924	2.2035
13925	2.3176
13926	2.6329
13927	2.5907
13928	0.61417
13929	0.71861
13930	0.82951
13931	0.9957
13932	0.84718
13933	1.0725
13934	1.0695
13935	1.0379
13936	1.1414
13937	1.1147
13938	1.2002
13939	1.0726
13940	1.067
13941	1.0684
13942	3.6437
13943	2.6121
13944	2.7367
13945	2.771
13946	3.6761
13947	3.9319
13948	3.6378
13949	3.9205
13950	3.6694
13951	3.2836
13952	3.5967
13953	4.7626
13954	3.2562
13955	2.9197
13956	2.309
13957	3.3761
13958	4.4325
13959	2.7626
13960	2.8504
13961	4.5312
13962	3.4758
13963	3.1148
13964	3.3037
13965	3.0912
13966	2.8266
13967	3.1341
13968	3.2992
13969	2.4053
13970	2.8941
13971	3.1551
13972	2.8194
13973	2.1788
13974	2.7317
13975	2.883
13976	3.135
13977	3.1815
13978	2.5394
13979	3.1485
13980	3.2245
13981	1.4112
13982	1.7485
13983	2.9143
13984	2.2121
13985	2.9008
13986	0.72517
13987	0.69743
13988	0.40794
13989	0.49458
13990	0.56075
13991	0.41535
13992	0.52301
13993	0.62872
13994	0.60526
13995	0.73034
13996	0.62342
13997	1.7444
13998	1.8394
13999	2.1495
14000	2.6737
14001	3.5689
14002	1.7722
14003	2.7435
14004	1.7745
14005	1.7917
14006	2.1789
14007	2.2468
14008	1.7254
14009	1.7556
14010	1.8723
14011	5.3003
14012	4.6381
14013	4.4381
14014	4.5146
14015	4.8309
14016	4.8813
14017	5.2324
14018	5.3667
14019	4.3526
14020	5.6139
14021	5.2481
14022	5.5137
14023	4.6106
14024	5.1555
14025	5.0773
14026	4.9496
14027	1.8546
14028	2.1589
14029	2.5253
14030	2.3441
14031	2.2959
14032	2.4947
14033	2.7678
14034	2.8726
14035	2.1545
14036	1.8317
14037	2.6556
14038	2.6727
14039	2.7719
14040	2.5634
14041	2.6615
14042	2.5476
14043	2.069
14044	1.625
14045	2.1524
14046	2.7506
14047	1.6431
14048	1.3263
14049	1.9022
14050	2.709
14051	2.4996
14052	1.9118
14053	3.4867
14054	4.4843
14055	2.647
14056	3.3885
14057	2.6966
14058	3.4431
14059	3.6159
14060	3.2712
14061	2.6158
14062	2.7721
14063	2.1592
14064	3.0513
14065	3.1696
14066	10.976
14067	10.938
14068	11.059
14069	11.059
14070	10.974
14071	10.657
14072	10.866
14073	10.725
14074	10.894
14075	11.316
14076	11.15
14077	10.894
14078	11.148
14079	11.296
14080	0.2992
14081	0.34904
14082	0.25025
14083	0.23802
14084	0.37026
14085	0.32946
14086	0.25438
14087	0.29175
14088	0.25803
14089	0.31736
14090	0.29673
14091	0.25485
14092	0.20505
14093	4.5392e-002
14094	6.844e-002
14095	0.17148
14096	0.26599
14097	0.22007
14098	0.28086
14099	4.0551e-002
14100	0.10361
14101	0.15918
14102	0.15728
14103	0.11868
14104	0.27854
14105	9.4461e-002
14106	13.282
14107	13.859
14108	15.006
14109	15.235
14110	15.168
14111	14.403
14112	14.628
14113	14.404
14114	14.628
14115	14.508
14116	14.953
14117	13.864
14118	13.392
14119	13.799
14120	15.027
14121	14.507
14122	3.2306
14123	4.1072
14124	4.2374
14125	2.7691
14126	3.0352
14127	2.2903
14128	2.1285
14129	2.9639
14130	4.0558
14131	2.0059
14132	2.2075
14133	2.4936
14134	2.7187
14135	2.4334
14136	3.5578
14137	3.3351
14138	2.8551
14139	6.1369
14140	5.7296
14141	4.9293
14142	4.618
14143	4.5412
14144	4.4453
14145	5.9226
14146	5.0745
14147	5.1427
14148	5.0929
14149	5.0586
14150	10.944
14151	11.041
14152	11.04
14153	11.129
14154	10.017
14155	10.302
14156	10.301
14157	10.487
14158	9.9492
14159	9.7378
14160	10.061
14161	10.059
14162	10.489
14163	9.809
14164	2.066
14165	2.3054
14166	1.6533
14167	1.5425
14168	2.2982
14169	2.1377
14170	1.3735
14171	1.4874
14172	1.546
14173	1.9268
14174	1.2642
14175	1.3701
14176	1.6635
14177	1.4392
14178	1.6836
14179	1.9234
14180	1.4161
14181	1.294
14182	2.1732
14183	1.833
14184	1.6322
14185	3.1321
14186	2.1153
14187	2.0552
14188	2.6105
14189	2.8491
14190	2.0973
14191	2.1908
14192	2.7011
14193	2.1472
14194	2.5676
14195	2.6343
14196	5.2516
14197	4.0567
14198	4.7032
14199	5.2832
14200	5.2452
14201	4.5604
14202	5.1011
14203	4.9597
14204	5.4241
14205	5.4519
14206	5.4383
14207	5.1689
14208	1.8666
14209	1.7565
14210	1.3548
14211	1.0276
14212	1.2214
14213	1.7085
14214	1.8522
14215	1.6434
14216	1.5165
14217	1.6275
14218	1.8936
14219	2.0864
14220	1.5494
14221	1.718
14222	1.8709
14223	2.0122
14224	1.9631
14225	2.2505
14226	1.9791
14227	2.7051
14228	1.8166
14229	2.5923
14230	2.3887
14231	2.4439
14232	3.3622
14233	2.1733
14234	2.7243
14235	4.5854
14236	4.2085
14237	4.944
14238	4.3285
14239	2.9617
14240	4.399
14241	3.8851
14242	4.5886
14243	3.5289
14244	2.5722
14245	1.2477
14246	1.9329
14247	1.486
14248	9.5271
14249	10.884
14250	5.723
14251	11.328
14252	7.1467
14253	8.8844
14254	9.8764
14255	4.221
14256	4.4157
14257	7.3908
14258	5.9427
14259	6.1163
14260	6.7002
14261	11.856
14262	5.2694
14263	11.143
14264	1.9416
14265	1.9406
14266	2.162
14267	2.2626
14268	2.1808
14269	2.208
14270	1.9459
14271	2.2512
14272	2.3132
14273	2.2136
14274	2.5645
14275	2.3099
14276	4.2706
14277	3.4371
14278	3.4394
14279	3.7473
14280	4.4758
14281	4.642
14282	3.0297
14283	2.3945
14284	4.6161
14285	4.3306
14286	4.1947
14287	3.5584
14288	4.5571
14289	4.1653
14290	4.1968
14291	4.0673
14292	2.8273
14293	3.436
14294	3.1329
14295	2.5177
14296	3.4961
14297	3.486
14298	0.70677
14299	0.78503
14300	0.62853
14301	0.63637
14302	0.54358
14303	0.58546
14304	0.74596
14305	0.58269
14306	0.57506
14307	0.61997
14308	0.67385
14309	0.73036
14310	0.80848
14311	0.92755
14312	0.73768
14313	0.82199
14314	0.67317
14315	0.71555
14316	0.58131
14317	0.54084
14318	0.82005
14319	0.77501
14320	0.66205
14321	0.55721
14322	0.75604
14323	0.70713
14324	0.80143
14325	0.66211
14326	0.58859
14327	0.75776
14328	0.68599
14329	5.2983
14330	5.7386
14331	3.8721
14332	2.92
14333	4.4492
14334	4.3101
14335	6.4502
14336	7.2118
14337	5.9365
14338	8.0779
14339	4.8444
14340	5.7368
14341	4.9645
14342	4.5638
14343	3.2685
14344	4.4572
14345	4.7005
14346	8.5633
14347	5.5174
14348	6.496
14349	3.799
14350	4.609
14351	8.1039
14352	7.8148
14353	11.855
14354	1.597
14355	1.807
14356	1.5771
14357	1.7316
14358	1.5946
14359	1.679
14360	2.0367
14361	2.1901
14362	1.6754
14363	1.8576
14364	2.1125
14365	1.9774
14366	1.6535
14367	1.8506
14368	2.0753
14369	0.38076
14370	0.67121
14371	0.75073
14372	0.54381
14373	0.45873
14374	0.46591
14375	0.64965
14376	0.51869
14377	0.54661
14378	0.54612
14379	0.56878
14380	0.64617
14381	9.8291
14382	9.9197
14383	11.225
14384	9.8315
14385	11.131
14386	12.065
14387	11.126
14388	12.042
14389	12.958
14390	12.125
14391	12.016
14392	12.835
14393	12.039
14394	10.041
14395	11.258
14396	12.129
14397	11.288
14398	11.259
14399	10.177
14400	10.044
14401	11.832
14402	11.604
14403	11.332
14404	11.271
14405	12.049
14406	12.216
14407	12.236
14408	11.189
14409	11.588
14410	11.274
14411	11.584
14412	11.82
14413	11.501
14414	12.245
14415	12.234
14416	11.5
14417	11.202
14418	11.821
14419	0.89411
14420	1.0095
14421	0.98317
14422	1.1242
14423	0.78651
14424	0.88814
14425	1.0231
14426	0.81029
14427	0.73697
14428	0.87688
14429	0.8534
14430	0.82033
14431	0.96763
14432	0.87703
14433	1.0131
14434	11.851
14435	11.878
14436	12.128
14437	12.127
14438	12.249
14439	11.854
14440	11.763
14441	11.823
14442	12.183
14443	11.965
14444	11.963
14445	11.942
14446	11.828
14447	11.821
14448	12.041
14449	11.94
14450	11.966
14451	1.1148
14452	0.87136
14453	1.0078
14454	1.0961
14455	1.214
14456	0.73241
14457	0.75812
14458	0.84917
14459	0.904
14460	0.76719
14461	0.76454
14462	1.2115
14463	1.1723
14464	0.77229
14465	1.0941
14466	0.91759
14467	0.88927
14468	5.2935
14469	4.8809
14470	5.2536
14471	5.3732
14472	4.5253
14473	4.8358
14474	5.6113
14475	5.2875
14476	5.5098
14477	4.4564
14478	4.6378
14479	5.0678
14480	5.154
14481	4.3485
14482	4.9461
14483	4.6078
14484	3.3204
14485	3.8346
14486	3.1
14487	3.2727
14488	2.7698
14489	2.9785
14490	3.2236
14491	3.0336
14492	3.2597
14493	3.0616
14494	3.4764
14495	2.2797
14496	2.7969
14497	3.1523
14498	2.8415
14499	2.2849
14500	3.4283
14501	3.2963
14502	3.8254
14503	3.0826
14504	3.342
14505	3.4044
14506	0.735
14507	0.57301
14508	0.97244
14509	0.60886
14510	0.74345
14511	0.98393
14512	0.9447
14513	0.93679
14514	0.79999
14515	1.0131
14516	1.0862
14517	0.6659
14518	0.94866
14519	1.0701
14520	0.84683
14521	0.94706
14522	0.78291
14523	0.89023
14524	0.50821
14525	0.60477
14526	0.47968
14527	0.54891
14528	0.53139
14529	0.62682
14530	0.98126
14531	0.87025
14532	0.8657
14533	0.6207
14534	0.56057
14535	0.94476
14536	0.6993
14537	0.74967
14538	0.71758
14539	0.69406
14540	0.90365
14541	0.83028
14542	0.72576
14543	0.80251
14544	5.8938
14545	5.2289
14546	5.6286
14547	6.2116
14548	5.8729
14549	5.1937
14550	6.403
14551	6.1712
14552	5.1716
14553	4.5888
14554	5.4576
14555	6.1022
14556	4.8934
14557	4.2845
14558	4.8277
14559	6.4094
14560	6.4283
14561	5.4607
14562	6.0177
14563	6.397
14564	6.3421
14565	6.5378
14566	6.9599
14567	7.2358
14568	7.8889
14569	6.067
14570	5.6591
14571	6.9041
14572	6.1501
14573	7.5893
14574	6.8667
14575	5.8398
14576	7.5857
14577	6.8465
14578	8.249
14579	8.1265
14580	7.2276
14581	8.4369
14582	7.504
14583	4.9374
14584	6.2297
14585	5.9722
14586	5.2213
14587	3.6708
14588	3.8184
14589	3.8009
14590	2.7138
14591	3.1732
14592	3.7466
14593	3.0075
14594	3.1808
14595	3.0507
14596	3.6296
14597	3.6559
14598	2.7752
14599	3.0027
14600	2.1236
14601	2.0244
14602	2.7085
14603	2.5598
14604	2.0315
14605	2.1309
14606	2.9986
14607	2.8364
14608	2.6099
14609	0.53471
14610	0.49874
14611	0.31016
14612	0.41873
14613	0.33649
14614	0.38967
14615	0.60281
14616	0.57706
14617	0.52745
14618	0.32367
14619	0.40996
14620	0.46805
14621	0.40987
14622	0.49179
14623	0.51372
14624	0.57779
14625	0.83067
14626	0.90503
14627	0.87599
14628	0.89916
14629	1.0046
14630	1.0279
14631	0.95874
14632	1.018
14633	0.99798
14634	0.80033
14635	0.91467
14636	0.83713
14637	0.79819
14638	0.85726
14639	1.0254
14640	0.95134
14641	1.019
14642	5.9838
14643	5.0355
14644	6.377
14645	6.1126
14646	6.5619
14647	5.0545
14648	5.4089
14649	5.4028
14650	4.9793
14651	6.4341
14652	5.8298
14653	6.5112
14654	6.3205
14655	4.7941
14656	5.6864
14657	4.9848
14658	4.3552
14659	5.6249
14660	6.5488
14661	4.2755
14662	5.0205
14663	5.6863
14664	5.9158
14665	4.8814
14666	6.3917
14667	7.4567
14668	5.3367
14669	4.4864
14670	4.8427
14671	5.7114
14672	6.6752
14673	5.584
14674	5.7196
14675	6.8622
14676	5.4646
14677	5.048
14678	6.0801
14679	6.9478
14680	5.3494
14681	6.3913
14682	7.3404
14683	7.2294
14684	7.2608
14685	7.1494
14686	3.53
14687	4.5937
14688	4.2795
14689	4.7527
14690	4.4023
14691	4.6081
14692	3.8412
14693	3.3058
14694	3.3092
14695	3.9149
14696	4.3944
14697	3.6142
14698	3.6286
14699	3.9702
14700	3.0206
14701	3.185
14702	2.5133
14703	2.1428
14704	2.5538
14705	2.2316
14706	2.465
14707	2.9329
14708	2.8454
14709	3.0503
14710	2.6517
14711	1.7221
14712	1.4716
14713	3.0925
14714	3.2539
14715	3.1472
14716	3.0635
14717	1.5065
14718	1.9095
14719	1.8099
14720	2.232
14721	3.0575
14722	1.2353
14723	2.9754
14724	2.0073
14725	2.4349
14726	1.8851
14727	2.1582
14728	2.1797
14729	2.1727
14730	2.4467
14731	4.0012
14732	3.6261
14733	4.7028
14734	3.9254
14735	4.7028
14736	4.2378
14737	3.6393
14738	3.9974
14739	3.629
14740	3.9987
14741	4.2348
14742	3.9256
14743	4.2336
14744	3.5514
14745	3.5496
14746	3.636
14747	4.
14748	1.9268
14749	1.7675
14750	2.0697
14751	1.5897
14752	1.5057
14753	1.5198
14754	1.5141
14755	1.4555
14756	1.6902
14757	1.5179
14758	1.8529
14759	1.4532
14760	1.8864
14761	11.75
14762	11.744
14763	11.694
14764	11.725
14765	11.7
14766	11.723
14767	9.2357
14768	8.9091
14769	8.4873
14770	9.0668
14771	8.8432
14772	8.6292
14773	9.1709
14774	9.655
14775	9.6628
14776	8.7016
14777	9.1699
14778	9.3908
14779	9.8031
14780	10.213
14781	9.6767
14782	9.249
14783	10.163
14784	10.562
14785	10.166
14786	9.1779
14787	10.577
14788	9.9843
14789	9.6792
14790	9.9843
14791	10.973
14792	10.933
14793	11.055
14794	10.97
14795	10.654
14796	10.892
14797	11.294
14798	11.147
14799	11.315
14800	11.146
14801	10.863
14802	11.056
14803	10.721
14804	10.888
14805	11.185
14806	11.022
14807	11.089
14808	11.649
14809	11.443
14810	11.652
14811	11.44
14812	11.48
14813	12.122
14814	11.835
14815	12.249
14816	11.829
14817	11.479
14818	12.185
14819	3.9081
14820	4.3634
14821	4.1338
14822	3.2518
14823	2.8898
14824	3.7477
14825	3.316
14826	3.78
14827	2.3729
14828	2.7587
14829	3.3289
14830	3.9908
14831	3.7603
14832	2.6787
14833	3.1272
14834	2.4386
14835	2.8418
14836	2.5125
14837	2.7467
14838	4.2296
14839	5.0656
14840	5.0484
14841	4.1879
14842	6.3476
14843	5.2017
14844	8.0282
14845	9.2788
14846	6.3396
14847	5.6107
14848	6.4023
14849	6.3989
14850	8.4013
14851	8.0113
14852	8.2933
14853	1.4785
14854	1.5651
14855	1.4565
14856	1.4205
14857	1.4425
14858	1.3644
14859	1.4753
14860	1.031
14861	1.1961
14862	1.266
14863	1.0547
14864	1.1283
14865	1.2623
14866	1.1838
14867	0.87029
14868	0.99431
14869	1.3691
14870	1.385
14871	0.96871
14872	0.91447
14873	0.86713
14874	0.78864
14875	9.014
14876	8.1437
14877	7.279
14878	8.1438
14879	9.4221
14880	8.5671
14881	9.3434
14882	8.5729
14883	7.7876
14884	6.9963
14885	7.9053
14886	7.2119
14887	7.7866
14888	7.0689
14889	7.6761
14890	6.8062
14891	7.6772
14892	6.7395
14893	8.362
14894	8.3645
14895	6.5283
14896	7.3528
14897	6.6003
14898	7.3516
14899	6.4086
14900	6.1931
14901	6.4117
14902	5.051
14903	4.838
14904	5.4688
14905	5.84
14906	5.8675
14907	5.2197
14908	4.7381
14909	5.1634
14910	5.8615
14911	6.4041
14912	5.2099
14913	5.2336
14914	5.3623
14915	6.0622
14916	6.4434
14917	6.2942
14918	6.4524
14919	13.588
14920	13.529
14921	11.475
14922	10.484
14923	12.252
14924	12.248
14925	13.591
14926	10.636
14927	12.324
14928	11.472
14929	12.324
14930	3.9607
14931	5.6412
14932	5.4073
14933	5.633
14934	4.0815
14935	5.6879
14936	3.9388
14937	5.5544
14938	5.1923
14939	5.9208
14940	3.9866
14941	5.6481
14942	5.5971
14943	4.0277
14944	5.8407
14945	3.9856
14946	5.5752
14947	5.8687
14948	5.8669
14949	3.9902
14950	7.3679
14951	7.5956
14952	7.7872
14953	7.5629
14954	7.9764
14955	7.9874
14956	7.5685
14957	7.3679
14958	7.9803
14959	7.7631
14960	7.9911
14961	7.3422
14962	7.5632
14963	7.5684
14964	0.77363
14965	0.786
14966	0.92106
14967	0.66838
14968	0.64958
14969	0.83138
14970	0.89904
14971	0.67146
14972	0.74614
14973	0.53418
14974	1.429
14975	1.0367
14976	1.3404
14977	0.86027
14978	1.8332
14979	1.5991
14980	2.4518
14981	2.589
14982	2.3668
14983	2.5271
14984	2.2808
14985	2.1883
14986	2.1283
14987	12.08
14988	11.037
14989	8.9288
14990	9.6943
14991	13.468
14992	14.278
14993	10.962
14994	12.832
14995	13.507
14996	14.279
14997	10.992
14998	11.307
14999	11.945
15000	8.8308
15001	10.178
15002	18.319
15003	18.691
15004	15.315
15005	14.911
15006	18.63
15007	17.155
15008	17.531
15009	17.12
15010	17.5
15011	17.292
15012	18.226
15013	15.121
15014	17.626
15015	15.959
15016	18.427
15017	17.411
15018	18.292
15019	16.383
15020	16.364
15021	18.499
15022	17.302
15023	15.316
15024	17.421
15025	10.133
15026	11.637
15027	10.812
15028	10.214
15029	10.543
15030	10.497
15031	10.122
15032	5.1191
15033	4.472
15034	5.0264
15035	6.0211
15036	5.7406
15037	5.8355
15038	5.471
15039	5.7269
15040	5.7165
15041	5.5719
15042	6.0218
15043	5.9631
15044	5.3765
15045	5.1798
15046	4.9952
15047	2.0112
15048	2.1876
15049	1.9907
15050	1.6692
15051	1.9326
15052	2.7673
15053	2.5608
15054	2.8448
15055	2.5899
15056	2.9482
15057	3.1199
15058	3.2602
15059	3.2849
15060	4.3853
15061	3.7083
15062	3.8247
15063	4.3001
15064	3.3909
15065	3.7756
15066	3.7369
15067	4.1837
15068	4.4701
15069	5.1323
15070	4.6781
15071	4.4942
15072	4.7742
15073	4.1826
15074	4.4765
15075	5.3096
15076	5.1258
15077	4.4938
15078	4.7717
15079	5.2912
15080	4.6629
15081	5.1079
15082	5.1242
15083	3.7691
15084	4.6573
15085	3.4319
15086	3.9301
15087	3.1974
15088	3.6131
15089	4.531
15090	3.6363
15091	4.7622
15092	2.8307
15093	4.7597
15094	0.39373
15095	0.48181
15096	0.42747
15097	0.24023
15098	0.42479
15099	0.506
15100	0.38648
15101	0.29619
15102	0.29612
15103	0.42065
15104	0.43297
15105	0.46856
15106	0.50687
15107	5.1663
15108	6.1289
15109	5.3992
15110	6.2736
15111	7.3837
15112	6.554
15113	7.719
15114	3.5667
15115	3.7334
15116	10.485
15117	8.7732
15118	5.8517
15119	3.9241
15120	1.2234
15121	2.6813
15122	6.0169
15123	2.3149
15124	1.4488
15125	3.7964
15126	2.6917
15127	6.4157
15128	5.5912
15129	2.4161
15130	3.2113
15131	4.2378
15132	0.81042
15133	0.92941
15134	0.92273
15135	0.74295
15136	0.83062
15137	0.72605
15138	0.68777
15139	0.81473
15140	0.63195
15141	0.6246
15142	0.71118
15143	0.72456
15144	0.77037
15145	0.7972
15146	0.56102
15147	0.64817
15148	0.55724
15149	0.69618
15150	0.80478
15151	0.73918
15152	0.72727
15153	0.7715
15154	0.7796
15155	0.80684
15156	0.84215
15157	0.62117
15158	0.54611
15159	0.75783
15160	0.6943
15161	0.7367
15162	0.68329
15163	0.8264
15164	0.84376
15165	0.94178
15166	0.53683
15167	0.63213
15168	0.6462
15169	0.64811
15170	0.77157
15171	0.81363
15172	0.67371
15173	0.96699
15174	0.58439
15175	0.84348
15176	0.95964
15177	0.83463
15178	3.589
15179	4.1446
15180	3.1817
15181	3.5
15182	3.3936
15183	3.7639
15184	4.341
15185	3.394
15186	3.1145
15187	3.1692
15188	3.2061
15189	2.8245
15190	2.792
15191	3.4196
15192	4.2164
15193	4.3139
15194	3.3812
15195	4.1697
15196	3.3126
15197	2.9355
15198	3.2545
15199	3.3597
15200	2.2989
15201	2.2106
15202	3.4292
15203	2.9304
15204	1.9589
15205	2.6911
15206	2.3488
15207	2.0478
15208	1.9494
15209	4.3947
15210	4.2117
15211	3.5572
15212	4.4157
15213	4.9271
15214	4.9595
15215	4.9666
15216	3.9412
15217	1.8635
15218	1.5068
15219	1.7197
15220	2.0493
15221	2.1078
15222	1.8275
15223	3.6926
15224	3.2343
15225	3.7293
15226	3.0837
15227	3.4565
15228	3.3731
15229	3.371
15230	3.3445
15231	3.2662
15232	4.3672
15233	3.8909
15234	3.6699
15235	3.7434
15236	0.55612
15237	0.6304
15238	0.35022
15239	0.67197
15240	0.64904
15241	0.53188
15242	0.44605
15243	0.70423
15244	0.7126
15245	0.68454
15246	0.70133
15247	0.34753
15248	0.45848
15249	0.59533
15250	0.56629
15251	0.39506
15252	0.68409
15253	0.52828
15254	0.56623
15255	6.363
15256	4.7902
15257	5.827
15258	6.3637
15259	6.278
15260	5.8275
15261	4.9381
15262	4.7918
15263	5.4734
15264	5.4755
15265	5.6867
15266	5.43
15267	4.9384
15268	3.0824
15269	3.3648
15270	2.1873
15271	3.5283
15272	3.2862
15273	2.9162
15274	2.3941
15275	1.8305
15276	3.0672
15277	3.1041
15278	1.8952
15279	2.8039
15280	3.0625
15281	2.1612
15282	0.96323
15283	0.76189
15284	1.0302
15285	1.2132
15286	0.70439
15287	0.68041
15288	0.95718
15289	0.80682
15290	0.76504
15291	1.3429
15292	1.3716
15293	1.106
15294	0.93459
15295	0.74456
15296	1.4176
15297	1.2193
15298	3.2502
15299	2.528
15300	2.7447
15301	2.3166
15302	3.4533
15303	2.781
15304	3.0096
15305	2.2685
15306	1.7956
15307	3.0883
15308	2.8742
15309	3.5601
15310	1.357
15311	1.5155
15312	3.6135
15313	3.3688
15314	2.312
15315	1.8141
15316	2.539
15317	2.2292
15318	1.2878
15319	8.6685
15320	8.6305
15321	8.406
15322	8.7286
15323	8.6895
15324	8.3046
15325	8.1777
15326	8.3107
15327	8.8288
15328	8.2858
15329	8.2255
15330	7.9308
15331	7.588
15332	7.9101
15333	7.2447
15334	3.4879
15335	3.675
15336	5.051
15337	4.809
15338	3.6159
15339	4.0562
15340	4.8508
15341	4.3444
15342	4.0676
15343	3.6826
15344	4.0512
15345	4.8016
15346	4.3396
15347	0.39296
15348	0.39363
15349	0.4565
15350	0.53413
15351	0.50743
15352	0.54543
15353	0.4123
15354	0.39735
15355	0.57383
15356	0.41247
15357	0.42897
15358	0.40754
15359	0.37943
15360	0.44945
15361	0.49783
15362	0.42431
15363	0.43469
15364	1.8672
15365	2.3066
15366	1.8598
15367	1.3368
15368	1.2427
15369	2.2138
15370	1.7438
15371	1.3769
15372	1.1492
15373	1.2068
15374	1.1399
15375	1.2266
15376	1.226
15377	1.1712
15378	0.8667
15379	1.107
15380	1.1641
15381	0.95195
15382	0.86018
15383	1.1066
15384	1.9056
15385	1.9238
15386	1.7901
15387	1.7274
15388	1.814
15389	2.2583
15390	2.0001
15391	1.8434
15392	1.7969
15393	2.0021
15394	2.0632
15395	2.0533
15396	12.092
15397	12.233
15398	12.236
15399	12.442
15400	12.506
15401	12.557
15402	12.722
15403	12.154
15404	12.579
15405	12.444
15406	8.0348
15407	8.3947
15408	7.9486
15409	6.0757
15410	5.8909
15411	4.096
15412	6.3524
15413	4.7815
15414	4.7844
15415	3.8708
15416	3.9287
15417	3.8829
15418	5.3081
15419	2.6471
15420	2.6376
15421	1.6101
15422	1.7889
15423	2.4979
15424	2.0515
15425	2.426
15426	1.876
15427	2.3343
15428	2.375
15429	1.826
15430	1.9697
15431	2.3619
15432	2.0945
15433	2.1824
15434	1.6909
15435	2.4776
15436	2.3332
15437	1.3616
15438	2.5246
15439	3.0848
15440	1.8424
15441	2.3775
15442	2.1621
15443	1.3952
15444	1.5994
15445	1.9039
15446	2.2622
15447	1.4653
15448	1.2267
15449	1.1997
15450	2.2174
15451	1.3575
15452	1.823
15453	0.22485
15454	0.29807
15455	0.18613
15456	0.42815
15457	0.24279
15458	0.3238
15459	0.52107
15460	0.52254
15461	0.25208
15462	0.56742
15463	0.67001
15464	0.71457
15465	0.61424
15466	0.51967
15467	0.6588
15468	0.56008
15469	0.40819
15470	0.53756
15471	0.49429
15472	0.41883
15473	0.43357
15474	11.836
15475	11.842
15476	12.233
15477	11.896
15478	11.939
15479	12.049
15480	12.321
15481	11.968
15482	11.937
15483	12.059
15484	12.055
15485	12.108
15486	12.18
15487	12.055
15488	14.195
15489	14.399
15490	14.333
15491	13.727
15492	13.92
15493	13.725
15494	13.921
15495	13.801
15496	14.195
15497	13.564
15498	13.981
15499	13.912
15500	13.252
15501	14.118
15502	13.298
15503	13.569
15504	13.804
15505	12.873
15506	12.959
15507	13.307
15508	13.645
15509	13.379
15510	13.735
15511	13.414
15512	13.584
15513	13.948
15514	13.784
15515	13.408
15516	13.201
15517	14.07
15518	14.316
15519	12.747
15520	13.547
15521	13.287
15522	4.6202
15523	4.8611
15524	5.7631
15525	4.8501
15526	5.2184
15527	5.2014
15528	5.3956
15529	5.2168
15530	5.7641
15531	5.3847
15532	5.3989
15533	1.0996
15534	1.2248
15535	1.0887
15536	1.0804
15537	1.1649
15538	1.1249
15539	1.252
15540	1.0962
15541	0.98804
15542	0.89754
15543	0.94019
15544	0.76424
15545	0.74007
15546	1.0664
15547	0.87734
15548	0.90287
15549	3.8628
15550	6.0537
15551	4.0995
15552	5.4159
15553	4.601
15554	5.5924
15555	4.8915
15556	5.288
15557	3.7191
15558	5.7025
15559	4.1804
15560	4.8092
15561	4.1473
15562	7.4675
15563	8.6149
15564	5.5742
15565	6.5209
15566	5.3556
15567	6.3989
15568	5.6428
15569	5.4309
15570	6.5207
15571	8.4939
15572	7.4734
15573	6.3981
15574	4.334
15575	6.4053
15576	4.863
15577	5.8767
15578	5.0559
15579	6.4175
15580	6.1212
15581	5.8264
15582	6.392
15583	5.2214
15584	6.4307
15585	5.1616
15586	5.0581
15587	4.1568
15588	4.0148
15589	7.1573
15590	7.955
15591	3.8443
15592	5.9881
15593	5.8038
15594	8.3117
15595	7.8614
15596	3.7959
15597	5.2238
15598	4.6986
15599	3.7845
15600	4.6956
15601	6.2678
15602	0.4211
15603	0.43052
15604	0.48926
15605	0.39097
15606	0.35254
15607	10.357
15608	11.822
15609	10.916
15610	11.465
15611	11.817
15612	10.429
15613	11.253
15614	10.903
15615	11.248
15616	2.2511
15617	2.1119
15618	1.9474
15619	2.143
15620	2.4914
15621	2.9374
15622	2.6661
15623	3.0447
15624	2.6168
15625	3.244
15626	3.4928
15627	3.6346
15628	2.3628
15629	2.4929
15630	2.3494
15631	2.426
15632	2.1219
15633	2.1436
15634	2.148
15635	1.9601
15636	2.0594
15637	1.8954
15638	1.989
15639	4.3104
15640	4.8336
15641	4.4557
15642	3.1701
15643	3.3996
15644	3.0335
15645	2.7943
15646	4.1655
15647	5.0309
15648	4.4444
15649	3.6537
15650	3.2727
15651	3.0394
15652	4.6372
15653	3.9312
15654	3.5515
15655	4.1625
15656	0.59425
15657	0.72962
15658	0.67765
15659	0.51216
15660	0.65917
15661	0.50921
15662	0.60022
15663	0.53791
15664	0.71117
15665	0.76855
15666	0.83522
15667	0.71432
15668	0.55542
15669	0.6358
15670	12.502
15671	12.49
15672	11.923
15673	12.498
15674	11.581
15675	11.924
15676	11.938
15677	11.583
15678	11.938
15679	1.1312
15680	1.1356
15681	0.88218
15682	1.3407
15683	1.1068
15684	1.0136
15685	3.4495
15686	3.7762
15687	3.1566
15688	3.1281
15689	3.2122
15690	3.3892
15691	4.4331
15692	4.073
15693	3.6332
15694	3.4845
15695	3.5937
15696	3.4162
15697	4.8677
15698	4.4656
15699	4.2013
15700	4.1181
15701	4.0572
15702	3.8057
15703	4.6082
15704	4.0653
15705	8.9902
15706	8.6333
15707	9.164
15708	9.0596
15709	9.5324
15710	8.9829
15711	8.4997
15712	2.8015
15713	2.7738
15714	2.015
15715	2.3511
15716	1.726
15717	2.3723
15718	2.2965
15719	2.5528
15720	2.6714
15721	1.818
15722	1.9835
15723	1.2987
15724	1.2867
15725	1.0943
15726	1.115
15727	0.93517
15728	0.91068
15729	1.161
15730	0.95027
15731	0.96295
15732	0.87925
15733	0.83609
15734	0.94479
15735	2.7162
15736	1.3393
15737	3.0544
15738	2.7104
15739	1.7977
15740	1.3642
15741	2.8629
15742	2.6695
15743	9.6804
15744	9.4887
15745	6.9443
15746	7.7578
15747	9.4884
15748	9.2915
15749	5.9268
15750	5.4383
15751	6.4774
15752	6.4777
15753	5.8597
15754	6.9441
15755	5.5048
15756	6.5982
15757	7.7604
15758	5.6452
15759	6.5999
15760	5.7208
15761	0.2137
15762	0.189
15763	7.6156e-002
15764	0.11908
15765	0.20519
15766	0.1214
15767	0.26363
15768	0.25647
15769	0.3402
15770	0.28602
15771	0.15603
15772	0.11779
15773	0.19887
15774	0.29597
15775	0.32283
15776	0.2687
15777	0.19742
15778	0.21137
15779	0.14937
15780	0.16469
15781	0.11842
15782	0.16482
15783	0.22103
15784	0.14205
15785	0.26768
15786	0.26836
15787	0.24448
15788	0.30796
15789	0.12556
15790	0.15424
15791	0.24073
15792	0.33957
15793	0.33416
15794	0.27463
15795	1.0646
15796	1.0709
15797	0.67194
15798	0.7274
15799	0.92246
15800	0.99688
15801	0.96792
15802	0.79887
15803	1.1254
15804	1.0077
15805	1.1242
15806	1.1105
15807	5.1408
15808	4.9493
15809	4.9118
15810	4.7228
15811	3.5036
15812	3.6351
15813	4.9113
15814	4.72
15815	4.0173
15816	4.2488
15817	3.6682
15818	4.0133
15819	3.5494
15820	4.2487
15821	1.2227
15822	1.3529
15823	1.0494
15824	1.0069
15825	1.0134
15826	1.0135
15827	0.9445
15828	1.0971
15829	0.89742
15830	0.95087
15831	1.1512
15832	1.4784
15833	1.1967
15834	1.2028
15835	0.90876
15836	0.98787
15837	0.94821
15838	1.1344
15839	1.0434
15840	1.0148
15841	1.1317
15842	1.0813
15843	1.3048
15844	0.92144
15845	0.89565
15846	1.1936
15847	1.0099
15848	0.98383
15849	1.2888
15850	0.88656
15851	1.0047
15852	1.3317
15853	1.0122
15854	1.0919
15855	1.2951
15856	1.0424
15857	1.1687
15858	1.1187
15859	14.072
15860	14.937
15861	15.994
15862	16.857
15863	15.993
15864	14.215
15865	16.788
15866	15.874
15867	14.941
15868	16.647
15869	15.874
15870	16.575
15871	1.1178
15872	1.8896
15873	1.9974
15874	1.5268
15875	1.5969
15876	2.1559
15877	1.4782
15878	2.4102
15879	2.7351
15880	2.1485
15881	2.9868
15882	0.39277
15883	0.4555
15884	0.47252
15885	0.4824
15886	0.56236
15887	0.53869
15888	0.62798
15889	0.65982
15890	0.44559
15891	0.57976
15892	0.57019
15893	0.5997
15894	9.6002
15895	8.6156
15896	11.326
15897	7.1703
15898	9.3132
15899	6.1903
15900	9.4805
15901	11.21
15902	12.359
15903	7.9898
15904	10.686
15905	12.365
15906	11.886
15907	10.641
15908	6.0916
15909	10.072
15910	8.9003
15911	11.391
15912	4.1007
15913	4.3319
15914	3.1311
15915	3.0941
15916	4.5014
15917	4.7686
15918	4.2637
15919	3.5138
15920	2.776
15921	2.8109
15922	3.4186
15923	4.1163
15924	4.3595
15925	3.8964
15926	3.4277
15927	2.6417
15928	2.8388
15929	3.105
15930	3.7973
15931	2.909
15932	4.1556
15933	3.598
15934	1.212
15935	1.1542
15936	1.4114
15937	1.7729
15938	1.9693
15939	1.1624
15940	0.98353
15941	0.95616
15942	1.7019
15943	1.6973
15944	0.99843
15945	0.96876
15946	1.1339
15947	0.93532
15948	1.1065
15949	1.6853
15950	1.4438
15951	0.96203
15952	1.1214
15953	1.2134
15954	1.1482
15955	2.7709
15956	2.4935
15957	4.8435
15958	4.0226
15959	1.9468
15960	4.1045
15961	2.4991
15962	3.6994
15963	2.0917
15964	2.4459
15965	1.7739
15966	1.4122
15967	1.1478
15968	1.4627
15969	3.6967
15970	3.1244
15971	2.2655
15972	3.1077
15973	15.436
15974	16.284
15975	16.217
15976	15.22
15977	15.797
15978	15.863
15979	15.22
15980	16.076
15981	15.339
15982	15.435
15983	14.636
15984	16.001
15985	15.34
15986	14.636
15987	5.6165
15988	7.1821
15989	6.1173
15990	8.3897
15991	5.5537
15992	4.9377
15993	3.6553
15994	4.0937
15995	7.9844
15996	4.3549
15997	4.1788
15998	3.9706
15999	3.9684
16000	3.8971
16001	6.328
16002	8.8449
16003	6.4
16004	6.6032
16005	4.9092
16006	5.0003
16007	4.2772
16008	4.4967
16009	5.5834
16010	1.589
16011	1.8434
16012	1.3098
16013	1.3424
16014	1.7913
16015	1.9461
16016	1.5157
16017	1.6893
16018	1.8904
16019	1.0993
16020	1.5977
16021	1.8555
16022	1.6902
16023	0.77562
16024	0.83289
16025	0.80029
16026	0.86885
16027	0.85937
16028	0.81839
16029	0.91676
16030	0.94048
16031	0.89858
16032	0.74441
16033	11.689
16034	11.592
16035	11.691
16036	11.596
16037	11.666
16038	11.615
16039	11.682
16040	11.529
16041	11.691
16042	11.594
16043	11.529
16044	11.616
16045	11.563
16046	11.27
16047	11.11
16048	11.391
16049	11.176
16050	11.27
16051	11.533
16052	11.315
16053	11.39
16054	11.39
16055	11.904
16056	12.188
16057	11.046
16058	11.017
16059	11.465
16060	11.536
16061	10.945
16062	11.049
16063	11.9
16064	11.881
16065	11.899
16066	12.249
16067	12.313
16068	11.534
16069	12.321
16070	11.883
16071	9.0866
16072	7.6397
16073	11.267
16074	9.1889
16075	11.201
16076	8.9901
16077	10.007
16078	12.32
16079	12.474
16080	11.922
16081	12.261
16082	9.4428
16083	11.629
16084	11.443
16085	6.7707
16086	8.1827
16087	11.855
16088	9.2307
16089	6.7429
16090	5.6384
16091	6.549
16092	6.6912
16093	6.5282
16094	6.3815
16095	6.4111
16096	6.5482
16097	6.3822
16098	6.3782
16099	6.0892
16100	6.0751
16101	6.0873
16102	5.9302
16103	8.8719
16104	8.7077
16105	8.7168
16106	8.795
16107	8.9944
16108	8.8247
16109	8.4442
16110	8.2437
16111	8.9773
16112	8.5621
16113	8.2018
16114	8.0215
16115	8.494
16116	8.6033
16117	9.0908
16118	8.4555
16119	8.8485
16120	8.8158
16121	9.1061
16122	9.2047
16123	9.2204
16124	8.8451
16125	5.2675
16126	5.5568
16127	5.3955
16128	5.5768
16129	3.6298
16130	3.4664
16131	5.6447
16132	4.1406
16133	5.2831
16134	5.5227
16135	3.525
16136	3.6369
16137	5.7191
16138	5.5658
16139	5.8106
16140	3.4583
16141	3.2171
16142	3.2518
16143	2.6969
16144	2.8257
16145	4.2823
16146	3.4972
16147	2.4968
16148	2.5242
16149	3.3145
16150	2.8211
16151	4.684
16152	3.1953
16153	3.8798
16154	2.6688
16155	2.9295
16156	4.3581
16157	2.4198
16158	2.405
16159	2.5741
16160	2.4007
16161	2.5803
16162	2.3421
16163	2.2897
16164	2.3701
16165	2.3745
16166	2.3435
16167	2.0218
16168	4.3277
16169	4.6247
16170	4.7306
16171	4.48
16172	4.6797
16173	4.6921
16174	5.0278
16175	5.0368
16176	1.9267
16177	2.3638
16178	2.4884
16179	2.656
16180	3.0193
16181	2.6233
16182	2.2667
16183	8.0738
16184	8.0567
16185	6.6477
16186	7.4824
16187	7.1896
16188	7.2258
16189	7.684
16190	7.5989
16191	7.7113
16192	7.5225
16193	8.1123
16194	7.206
16195	18.816
16196	17.958
16197	18.87
16198	18.006
16199	16.724
16200	17.603
16201	16.739
16202	17.409
16203	18.433
16204	18.691
16205	15.507
16206	17.532
16207	18.627
16208	16.377
16209	17.418
16210	18.497
16211	17.494
16212	16.352
16213	14.255
16214	14.06
16215	14.251
16216	16.607
16217	15.875
16218	17.55
16219	16.605
16220	15.871
16221	16.735
16222	17.876
16223	17.596
16224	17.665
16225	16.674
16226	17.805
16227	16.672
16228	15.674
16229	14.154
16230	16.734
16231	14.156
16232	14.056
16233	15.674
16234	0.62651
16235	0.73931
16236	1.0431
16237	0.8503
16238	0.57209
16239	0.62064
16240	1.1295
16241	3.9114
16242	5.4477
16243	3.45
16244	4.5581
16245	3.8698
16246	3.214
16247	4.6152
16248	3.8719
16249	4.5213
16250	5.5448
16251	3.397
16252	3.288
16253	3.5167
16254	4.4286
16255	3.9608
16256	4.738
16257	5.4859
16258	5.3399
16259	4.6931
16260	5.5462
16261	7.8887
16262	8.4843
16263	8.4844
16264	8.4306
16265	7.8188
16266	9.7722
16267	8.9489
16268	9.1283
16269	9.8298
16270	8.431
16271	7.7993
16272	9.1287
16273	8.3988
16274	8.9469
16275	8.3969
16276	7.6765
16277	7.6072
16278	4.4834
16279	4.2581
16280	4.5215
16281	4.3036
16282	4.3281
16283	2.6024
16284	3.6878
16285	3.6303
16286	3.975
16287	3.7717
16288	3.6151
16289	3.9502
16290	2.8459
16291	2.5872
16292	2.8357
16293	3.6978
16294	3.4937
16295	3.5559
16296	3.5532
16297	3.4953
16298	0.81987
16299	0.74095
16300	0.79318
16301	0.9741
16302	1.2146
16303	0.98453
16304	1.0567
16305	2.0394
16306	1.6853
16307	2.3011
16308	2.5198
16309	2.422
16310	2.39
16311	2.4961
16312	2.4213
16313	2.5365
16314	2.5601
16315	2.4913
16316	19.252
16317	18.319
16318	16.998
16319	17.965
16320	19.181
16321	18.268
16322	15.635
16323	16.61
16324	19.05
16325	16.894
16326	17.788
16327	18.993
16328	18.142
16329	0.44061
16330	0.36461
16331	0.38965
16332	0.2932
16333	0.25055
16334	0.18547
16335	0.45808
16336	0.38941
16337	0.24856
16338	7.2989
16339	7.9258
16340	7.2315
16341	7.9277
16342	7.7448
16343	8.5907
16344	7.0924
16345	7.8064
16346	7.8088
16347	6.8758
16348	7.0147
16349	8.5846
16350	2.1717
16351	2.3518
16352	2.1579
16353	2.3968
16354	2.4241
16355	2.9137
16356	2.4405
16357	3.5994
16358	3.1464
16359	2.7912
16360	2.9047
16361	6.199
16362	6.9836
16363	5.6387
16364	6.0548
16365	5.8643
16366	6.2565
16367	6.4458
16368	7.1985
16369	6.581
16370	7.2141
16371	7.2142
16372	5.5905
16373	4.6331
16374	4.8165
16375	4.7364
16376	7.3514
16377	4.3547
16378	4.3173
16379	6.6564
16380	5.4805
16381	1.8576
16382	1.7448
16383	2.1594
16384	1.5732
16385	1.8206
16386	1.7794
16387	1.9428
16388	1.8765
16389	16.777
16390	17.377
16391	15.94
16392	16.547
16393	15.942
16394	16.548
16395	17.443
16396	16.723
16397	16.668
16398	15.676
16399	17.583
16400	17.799
16401	16.666
16402	17.655
16403	15.682
16404	4.7744
16405	5.2903
16406	5.4236
16407	5.7525
16408	4.8281
16409	3.5623
16410	4.157
16411	4.5064
16412	3.7323
16413	4.9723
16414	4.0232
16415	5.1686
16416	4.0438
16417	4.9682
16418	2.1256
16419	2.2694
16420	2.2845
16421	2.1376
16422	2.1419
16423	1.8691
16424	1.8495
16425	2.1567
16426	6.4009
16427	6.0518
16428	6.209
16429	6.2729
16430	5.9726
16431	5.9235
16432	5.9858
16433	6.1079
16434	6.0704
16435	5.8761
16436	6.5536
16437	6.3265
16438	6.5195
16439	6.3473
16440	5.8531
16441	14.609
16442	14.579
16443	16.853
16444	17.519
16445	18.014
16446	18.68
16447	16.372
16448	14.61
16449	18.618
16450	15.688
16451	16.855
16452	17.522
16453	17.284
16454	18.221
16455	17.401
16456	17.286
16457	18.285
16458	16.374
16459	18.417
16460	17.401
16461	18.488
16462	0.47892
16463	0.81111
16464	0.60948
16465	0.76202
16466	0.5844
16467	0.38384
16468	0.69842
16469	0.52295
16470	0.31052
16471	0.26936
16472	0.26992
16473	0.21933
16474	0.2881
16475	0.42494
16476	0.4482
16477	0.38943
16478	0.36378
16479	0.40363
16480	0.71781
16481	0.54671
16482	0.57321
16483	8.8971
16484	9.273
16485	8.829
16486	9.151
16487	8.6866
16488	9.2743
16489	8.6141
16490	9.6386
16491	9.1541
16492	10.197
16493	10.163
16494	9.645
16495	2.022
16496	2.1514
16497	2.3201
16498	2.2872
16499	2.1688
16500	2.2285
16501	2.3953
16502	2.5949
16503	2.486
16504	2.4578
16505	2.2985
16506	12.587
16507	12.582
16508	11.266
16509	12.549
16510	11.06
16511	9.7907
16512	13.693
16513	11.266
16514	9.9179
16515	11.07
16516	12.556
16517	3.4956
16518	3.8113
16519	3.9469
16520	3.8043
16521	3.8545
16522	3.7222
16523	3.9069
16524	3.3137
16525	3.785
16526	3.479
16527	3.4835
16528	3.1104
16529	3.7619
16530	3.8589
16531	3.5487
16532	3.6498
16533	3.6871
16534	3.7714
16535	11.803
16536	11.926
16537	11.895
16538	11.895
16539	11.853
16540	11.805
16541	1.4368
16542	1.4528
16543	1.4956
16544	1.9801
16545	1.6292
16546	1.8372
16547	0.97799
16548	1.0322
16549	1.0254
16550	1.2731
16551	1.2902
16552	1.1661
16553	0.97202
16554	0.88258
16555	1.216
16556	0.97325
16557	1.0253
16558	13.535
16559	13.246
16560	13.71
16561	14.339
16562	14.341
16563	14.854
16564	13.537
16565	14.085
16566	13.138
16567	14.787
16568	14.573
16569	13.711
16570	14.084
16571	14.645
16572	3.6985
16573	3.9751
16574	3.3939
16575	3.7349
16576	4.0194
16577	4.1166
16578	3.8263
16579	3.8323
16580	4.0751
16581	3.3561
16582	3.21
16583	3.4294
16584	3.1719
16585	3.6084
16586	4.1338
16587	3.7241
16588	4.0988
16589	4.1072
16590	4.509
16591	4.3278
16592	4.0699
16593	3.4487
16594	3.4553
16595	3.6237
16596	4.1286
16597	3.8697
16598	4.0736
16599	4.236
16600	5.6649
16601	4.7558
16602	4.7496
16603	4.6681
16604	5.3498
16605	4.9576
16606	4.8235
16607	4.9495
16608	5.6576
16609	5.4639
16610	5.4301
16611	5.2294
16612	5.2671
16613	5.4353
16614	4.9491
16615	5.3434
16616	5.2184
16617	0.43275
16618	0.50069
16619	1.1163
16620	0.777
16621	1.0938
16622	0.69936
16623	0.67796
16624	1.0292
16625	0.66812
16626	0.75226
16627	0.68344
16628	0.54917
16629	0.59997
16630	0.7345
16631	0.9837
16632	3.8844
16633	3.7843
16634	3.7612
16635	3.896
16636	3.3047
16637	3.6206
16638	3.7408
16639	3.6119
16640	1.0852
16641	1.0216
16642	0.62252
16643	0.60402
16644	0.70284
16645	0.87523
16646	0.96616
16647	0.87332
16648	0.88964
16649	0.79763
16650	0.79585
16651	0.73931
16652	0.80001
16653	0.77153
16654	0.67221
16655	0.83305
16656	0.83646
16657	0.90345
16658	0.97131
16659	1.0608
16660	0.87797
16661	0.90725
16662	0.88707
16663	0.89421
16664	5.212
16665	5.9199
16666	5.3828
16667	6.4469
16668	4.2077
16669	4.6631
16670	5.5008
16671	4.9287
16672	3.8299
16673	4.8117
16674	6.0764
16675	5.4978
16676	5.6067
16677	6.3351
16678	3.578
16679	3.6459
16680	4.1173
16681	4.0684
16682	4.1088
16683	7.8156
16684	9.259
16685	8.5405
16686	8.1583
16687	8.7339
16688	7.9532
16689	8.6242
16690	8.2268
16691	8.0254
16692	8.731
16693	9.2606
16694	8.6176
16695	2.3829
16696	2.2256
16697	3.2048
16698	4.0642
16699	2.8776
16700	4.6708
16701	5.0334
16702	3.236
16703	4.102
16704	4.2149
16705	3.1733
16706	3.6161
16707	4.4894
16708	3.4041
16709	2.9173
16710	4.11
16711	2.6892
16712	3.0733
16713	2.6535
16714	2.6469
16715	1.7341
16716	1.6661
16717	3.9191
16718	3.2701
16719	4.3141
16720	1.9535
16721	2.0809
16722	1.3653
16723	1.4243
16724	3.3402
16725	1.7108
16726	1.8693
16727	2.6377
16728	2.612
16729	1.0165
16730	1.087
16731	1.0427
16732	1.1107
16733	1.3055
16734	1.6843
16735	1.4579
16736	1.1672
16737	1.6698
16738	1.6764
16739	1.6932
16740	1.3636
16741	1.4293
16742	1.2987
16743	1.1544
16744	1.2053
16745	1.2207
16746	1.364
16747	1.2922
16748	1.7593
16749	1.2753
16750	1.4939
16751	1.8214
16752	0.68063
16753	0.69251
16754	0.46751
16755	0.48166
16756	0.49864
16757	0.49577
16758	0.62753
16759	0.66033
16760	0.39266
16761	0.72857
16762	0.75512
16763	0.8475
16764	0.4175
16765	0.56863
16766	0.41994
16767	0.40674
16768	0.55353
16769	13.773
16770	13.423
16771	13.275
16772	13.629
16773	13.014
16774	13.01
16775	13.56
16776	13.276
16777	12.362
16778	12.369
16779	12.691
16780	12.612
16781	12.584
16782	12.907
16783	12.609
16784	12.763
16785	12.736
16786	13.135
16787	12.906
16788	12.589
16789	12.981
16790	12.731
16791	7.7727
16792	7.8234
16793	7.6712
16794	7.5903
16795	7.4686
16796	7.8459
16797	7.6903
16798	7.5186
16799	7.6704
16800	7.0832
16801	7.0827
16802	7.4678
16803	14.101
16804	15.061
16805	15.702
16806	13.687
16807	14.28
16808	14.785
16809	15.491
16810	15.06
16811	15.633
16812	15.422
16813	14.102
16814	14.787
16815	14.279
16816	13.558
16817	12.355
16818	11.288
16819	11.293
16820	12.361
16821	12.473
16822	12.475
16823	0.31713
16824	0.40496
16825	0.40875
16826	0.37077
16827	0.49011
16828	0.38995
16829	0.38315
16830	0.25004
16831	0.32513
16832	0.10481
16833	0.13971
16834	0.40678
16835	0.21742
16836	0.18471
16837	11.983
16838	11.975
16839	11.495
16840	11.495
16841	11.472
16842	12.022
16843	12.013
16844	12.435
16845	10.392
16846	10.517
16847	10.795
16848	9.8815
16849	10.135
16850	10.554
16851	10.229
16852	10.73
16853	10.02
16854	10.373
16855	10.729
16856	10.553
16857	10.089
16858	10.372
16859	12.73
16860	12.642
16861	12.617
16862	12.945
16863	13.247
16864	12.947
16865	12.796
16866	12.643
16867	12.768
16868	13.17
16869	12.939
16870	12.621
16871	13.017
16872	12.767
16873	6.102
16874	5.4139
16875	5.7899
16876	5.0107
16877	5.1632
16878	5.5663
16879	5.6975
16880	5.827
16881	6.3648
16882	4.7395
16883	5.0743
16884	5.3865
16885	6.6356
16886	5.3977
16887	5.9609
16888	5.2104
16889	5.9443
16890	5.8028
16891	6.623
16892	5.0551
16893	6.1653
16894	7.2188
16895	5.4049
16896	6.1339
16897	6.8407
16898	5.963
16899	6.4328
16900	1.0372
16901	1.1001
16902	1.1182
16903	1.5374
16904	1.318
16905	1.3775
16906	1.5765
16907	1.5155
16908	1.7211
16909	1.3609
16910	1.2289
16911	1.651
16912	1.4309
16913	1.2919
16914	1.3039
16915	1.2135
16916	13.774
16917	15.038
16918	13.296
16919	10.886
16920	13.812
16921	12.958
16922	14.59
16923	12.992
16924	14.78
16925	13.018
16926	15.186
16927	10.161
16928	10.243
16929	10.271
16930	10.536
16931	9.0248
16932	9.1413
16933	5.8454
16934	5.4405
16935	5.1962
16936	5.0758
16937	5.8492
16938	5.7545
16939	5.4424
16940	5.76
16941	6.3972
16942	6.1964
16943	6.3689
16944	5.8104
16945	4.4294
16946	4.8772
16947	6.3767
16948	5.0533
16949	6.4058
16950	4.8337
16951	6.497
16952	6.2697
16953	6.4782
16954	13.265
16955	14.82
16956	14.196
16957	14.039
16958	13.312
16959	14.745
16960	15.302
16961	13.293
16962	13.117
16963	12.945
16964	13.164
16965	13.302
16966	14.078
16967	15.28
16968	13.248
16969	0.14097
16970	0.10952
16971	7.9226e-002
16972	0.15095
16973	0.16125
16974	0.11351
16975	8.7849e-002
16976	0.1328
16977	8.864e-002
16978	0.12176
16979	9.7817e-002
16980	7.5049e-002
16981	9.4777e-002
16982	1.775
16983	1.5411
16984	3.4327
16985	4.2157
16986	3.3315
16987	3.1486
16988	2.0885
16989	2.0513
16990	1.9947
16991	3.0316
16992	3.6213
16993	2.6477
16994	3.328
16995	3.1598
16996	2.7799
16997	2.718
16998	3.0963
16999	3.2907
17000	2.907
17001	3.2782
17002	2.0751
17003	2.9968
17004	2.341
17005	1.9288
17006	1.889
17007	2.9055
17008	3.3179
17009	3.5505
17010	4.0056
17011	2.3101
17012	2.5907
17013	3.1713
17014	3.6245
17015	3.2856
17016	2.802
17017	3.0487
17018	3.6966
17019	3.4617
17020	3.5049
17021	3.1683
17022	4.3896
17023	3.8776
17024	3.8075
17025	3.8189
17026	4.0231
17027	6.8717
17028	6.8364
17029	6.1469
17030	7.5074
17031	8.4018
17032	5.8363
17033	4.9467
17034	6.228
17035	7.8786
17036	6.9567
17037	5.2264
17038	8.1263
17039	7.2351
17040	5.9746
17041	2.2399
17042	1.4958
17043	1.4221
17044	2.1117
17045	0.9254
17046	2.1189
17047	1.4631
17048	1.1844
17049	1.1828
17050	1.9947
17051	1.4503
17052	0.70148
17053	1.0326
17054	0.83867
17055	4.1017
17056	4.0914
17057	5.4607
17058	5.3633
17059	5.433
17060	5.7427
17061	5.5179
17062	5.0106
17063	4.8886
17064	4.6876
17065	4.9693
17066	4.367
17067	4.8367
17068	4.63
17069	1.537
17070	1.7505
17071	1.5311
17072	1.7203
17073	1.62
17074	1.6115
17075	1.5926
17076	1.8302
17077	1.8522
17078	1.9529
17079	1.67
17080	1.5051
17081	1.7852
17082	2.1495
17083	2.3615
17084	1.9499
17085	2.0596
17086	1.6016
17087	1.4863
17088	2.1169
17089	2.2026
17090	1.8323
17091	1.5758
17092	2.0366
17093	1.908
17094	2.0827
17095	1.9156
17096	15.328
17097	17.079
17098	16.082
17099	15.326
17100	17.008
17101	15.147
17102	16.082
17103	15.147
17104	0.30245
17105	0.15291
17106	0.17646
17107	0.15296
17108	0.14098
17109	0.30363
17110	0.2301
17111	0.89003
17112	0.93541
17113	0.17261
17114	0.24101
17115	0.46877
17116	0.40399
17117	0.74039
17118	0.54439
17119	0.48893
17120	0.33098
17121	0.25313
17122	0.67805
17123	0.46635
17124	0.49525
17125	0.31628
17126	0.64048
17127	0.27607
17128	0.50748
17129	2.3692
17130	2.1371
17131	2.5163
17132	2.3589
17133	2.4355
17134	2.7665
17135	2.7345
17136	2.3847
17137	2.6563
17138	2.4382
17139	2.4453
17140	2.9885
17141	3.0983
17142	2.3033
17143	2.3001
17144	2.1486
17145	2.1582
17146	2.6854
17147	6.5776
17148	6.4484
17149	6.0817
17150	5.9047
17151	6.3832
17152	6.6545
17153	6.0711
17154	6.4482
17155	6.0835
17156	1.461
17157	1.4645
17158	1.6015
17159	1.7334
17160	2.1396
17161	1.6663
17162	1.8224
17163	1.9043
17164	5.8678
17165	6.0892
17166	5.2235
17167	5.676
17168	5.8722
17169	6.1147
17170	5.9089
17171	5.225
17172	5.6702
17173	5.6841
17174	4.7917
17175	5.368
17176	6.1364
17177	5.6727
17178	4.608
17179	5.4197
17180	5.9788
17181	4.9554
17182	6.375
17183	6.4073
17184	6.3059
17185	6.3896
17186	6.4955
17187	6.3779
17188	6.1918
17189	6.6986
17190	5.6391
17191	6.3439
17192	7.028
17193	8.4356
17194	8.8403
17195	5.8035
17196	6.4162
17197	6.1406
17198	6.3448
17199	7.7693
17200	7.0983
17201	8.2119
17202	8.4484
17203	4.6128
17204	4.3415
17205	5.4121
17206	6.3121
17207	5.2697
17208	6.0638
17209	4.3395
17210	4.041
17211	4.3152
17212	4.0648
17213	4.1053
17214	4.2251
17215	3.9932
17216	4.4508
17217	4.8479
17218	4.9748
17219	4.7388
17220	4.8435
17221	4.4131
17222	4.0153
17223	4.3543
17224	4.0508
17225	4.5392
17226	4.5559
17227	4.2391
17228	4.4132
17229	3.7065
17230	3.452
17231	4.3422
17232	4.3107
17233	3.0678
17234	2.9488
17235	2.9395
17236	2.1118
17237	1.9313
17238	2.6607
17239	0.17879
17240	0.2377
17241	0.23586
17242	0.22638
17243	0.2093
17244	0.1291
17245	0.17201
17246	0.27191
17247	0.26942
17248	0.12743
17249	0.19475
17250	0.13582
17251	0.19792
17252	0.12161
17253	0.12554
17254	5.5113
17255	6.1465
17256	5.012
17257	6.4825
17258	5.4421
17259	6.4872
17260	5.081
17261	6.2683
17262	7.5731
17263	7.5758
17264	6.4632
17265	5.2263
17266	7.4549
17267	7.5747
17268	5.2996
17269	6.4592
17270	2.7372
17271	2.9573
17272	3.0372
17273	2.5675
17274	2.1327
17275	2.2129
17276	2.6795
17277	2.9997
17278	2.1602
17279	2.1488
17280	2.987
17281	2.1584
17282	2.6792
17283	2.1881
17284	2.7837
17285	3.1312
17286	11.749
17287	11.698
17288	11.724
17289	11.724
17290	11.746
17291	11.696
17292	11.832
17293	11.283
17294	10.528
17295	13.439
17296	13.033
17297	11.507
17298	9.2246
17299	10.963
17300	15.089
17301	15.1
17302	11.283
17303	9.6133
17304	11.18
17305	5.2099
17306	5.0618
17307	4.4411
17308	4.6005
17309	4.9792
17310	4.9753
17311	4.4234
17312	4.6173
17313	4.2153
17314	4.4332
17315	4.6365
17316	4.6295
17317	4.2399
17318	4.4202
17319	13.111
17320	14.016
17321	11.593
17322	12.509
17323	11.721
17324	10.206
17325	11.176
17326	12.591
17327	12.823
17328	12.938
17329	10.825
17330	14.123
17331	12.107
17332	0.58652
17333	0.56897
17334	0.72281
17335	0.62014
17336	0.76546
17337	0.57447
17338	0.54663
17339	0.80094
17340	1.0329
17341	1.029
17342	0.68392
17343	1.1996
17344	1.1517
17345	0.69785
17346	0.6035
17347	1.02
17348	0.66213
17349	8.7616
17350	8.931
17351	8.3935
17352	8.6447
17353	8.8217
17354	8.3583
17355	8.0873
17356	8.538
17357	8.1274
17358	7.6667
17359	8.1514
17360	7.9348
17361	3.3245
17362	3.7352
17363	3.4153
17364	3.7117
17365	3.359
17366	2.7681
17367	3.3615
17368	2.4145
17369	3.1547
17370	3.0113
17371	2.791
17372	2.9747
17373	2.5532
17374	2.6169
17375	2.8599
17376	0.77732
17377	0.98838
17378	0.97808
17379	1.0532
17380	0.93652
17381	1.0125
17382	0.84368
17383	0.91855
17384	0.92398
17385	0.87693
17386	0.86905
17387	0.69565
17388	0.64263
17389	0.75189
17390	0.81533
17391	0.75914
17392	0.75015
17393	0.64154
17394	0.62329
17395	0.66528
17396	0.58107
17397	10.91
17398	11.381
17399	11.231
17400	11.047
17401	10.774
17402	10.647
17403	11.049
17404	11.35
17405	10.996
17406	11.225
17407	10.788
17408	10.994
17409	10.858
17410	8.4557
17411	8.1824
17412	8.3931
17413	8.1812
17414	7.2487
17415	7.1578
17416	7.4554
17417	7.5722
17418	7.2929
17419	7.3545
17420	8.0238
17421	7.8261
17422	7.817
17423	7.7157
17424	2.068
17425	2.3062
17426	2.3496
17427	3.4123
17428	3.1325
17429	2.5343
17430	2.8068
17431	3.4659
17432	1.4359
17433	1.4308
17434	1.7185
17435	1.5492
17436	1.3622
17437	1.5025
17438	1.5653
17439	1.7199
17440	1.5518
17441	1.6631
17442	1.6839
17443	2.0086
17444	1.5713
17445	1.9015
17446	1.4874
17447	1.4781
17448	1.631
17449	1.5302
17450	1.6971
17451	1.8506
17452	1.6628
17453	1.7576
17454	1.8223
17455	1.9877
17456	1.6485
17457	1.7165
17458	1.9058
17459	5.2004
17460	4.9692
17461	4.603
17462	5.0942
17463	4.6013
17464	4.6883
17465	5.0938
17466	4.8116
17467	4.6138
17468	4.8148
17469	12.583
17470	11.075
17471	11.262
17472	12.585
17473	11.068
17474	12.557
17475	11.262
17476	12.557
17477	2.6952
17478	2.6546
17479	2.0386
17480	9.2266
17481	9.1526
17482	8.5675
17483	5.0496
17484	5.3189
17485	4.2433
17486	3.9995
17487	4.2603
17488	4.24
17489	4.1967
17490	5.0893
17491	5.1368
17492	4.121
17493	0.77657
17494	0.8013
17495	6.2903
17496	6.2399
17497	6.1152
17498	4.2546
17499	3.8223
17500	2.9372
17501	2.9455
17502	2.8317
17503	2.1542
17504	4.1353
17505	3.833
17506	9.2437e-002
17507	4.2519
17508	4.2319
17509	4.2175
17510	2.5914
17511	0.74606
17512	0.7934
17513	6.0523
17514	8.3646
17515	0.34854
17516	0.3192
17517	0.26124
17518	5.1424
17519	9.3212
17520	9.7594
17521	15.331
17522	5.5467
17523	5.12
17524	4.33
17525	5.8623
17526	5.8888
17527	3.8317
17528	5.6724
17529	4.033
17530	4.0569
17531	4.5353
17532	4.5546
17533	4.4032
17534	2.9442
17535	7.6654
17536	9.8474
17537	5.2025
17538	3.9317
17539	0.45564
17540	0.48804
17541	2.9733
17542	6.9939
17543	6.2185
17544	6.857
17545	3.0338
17546	10.246
17547	5.365
17548	5.1567
17549	6.3653
17550	7.7735
17551	7.3293
17552	7.4146
17553	6.5879
17554	5.5708
17555	5.8826
17556	5.8992
17557	6.2047
17558	4.0253
17559	3.9901
17560	3.0936e-002
17561	3.0085
17562	0.20893
17563	0.2188
17564	0.31765
17565	0.28676
17566	9.8797
17567	5.7152
17568	6.0811
17569	6.0485
17570	5.1908
17571	4.4755
17572	4.0614
17573	4.7376
17574	0.63301
17575	1.5605
17576	0.79747
17577	0.41026
17578	0.53383
17579	1.3744
17580	3.2215
17581	4.0694
17582	4.2929
17583	0.71589
17584	0.6792
17585	2.1185
17586	3.401
17587	0.20013
17588	0.21354
17589	0.31116
17590	4.7251
17591	4.6815
17592	5.3977
17593	6.0284
17594	2.885
17595	5.6108e-002
17596	1.2299
17597	0.80387
17598	0.81149
17599	5.8175
17600	2.943
17601	1.604
17602	4.7645
17603	2.9775
17604	2.5965
17605	2.7805
17606	2.025
17607	2.6012
17608	4.2615
17609	4.2042
17610	4.2416
17611	4.2419
17612	6.4197
17613	6.3028
17614	6.6578
17615	4.5947
17616	4.8047
17617	0.17195
17618	2.6691
17619	2.8262
17620	2.8053
17621	4.2626
17622	5.9972
17623	5.607
17624	4.0533
17625	4.2621
17626	11.3
17627	0.7782
17628	2.3117
17629	0.32933
17630	1.1349
17631	11.374
17632	10.411
17633	10.436
17634	9.8691
17635	6.3696
17636	6.3812
17637	3.0916
17638	3.797
17639	3.5079
17640	2.7884
17641	2.6815
17642	10.538
17643	6.5952
17644	6.3677
17645	2.9376
17646	8.9318
17647	6.7334
17648	5.4384
17649	5.1601
17650	4.5074
17651	4.7769
17652	4.5426
17653	5.6363
17654	1.8638
17655	5.0537
17656	5.4077
17657	5.9941
17658	4.5919
17659	4.6043
17660	5.1919
17661	4.7888
17662	4.2466
17663	5.7107
17664	5.1172
17665	5.5287
17666	4.2115
17667	4.2932
17668	4.7525
17669	4.8448
17670	4.6934
17671	4.5945
17672	4.6021
17673	6.4783
17674	5.6525
17675	5.3169
17676	4.6014
17677	5.752
17678	4.758
17679	4.7224
17680	3.1075
17681	5.4507
17682	4.6003
17683	5.7776
17684	7.0931
17685	4.1963
17686	4.7394
17687	5.1651
17688	6.7299
17689	4.4079
17690	5.2744
17691	4.8416
17692	5.6307
17693	5.3491
17694	4.9034
17695	4.7342
17696	4.2451
17697	4.4171
17698	5.1169
17699	6.0767
17700	0.36568
17701	4.5206
17702	5.2707
17703	5.0262
17704	5.2729
17705	5.2788
17706	4.6709
17707	4.8048
17708	5.2658
17709	4.5579
17710	5.2824
17711	5.2099
17712	4.4126
17713	1.7261
17714	5.6377
17715	4.7128
17716	7.242
17717	4.5012
17718	4.6544
17719	4.6151
17720	5.3962
17721	4.528
17722	5.992
17723	6.5016
17724	2.0476
17725	5.2423
17726	4.8203
17727	5.2743
17728	4.9805
17729	5.284
17730	5.2167
17731	5.2412
17732	4.5287
17733	4.5468
17734	4.7195
17735	4.8139
17736	5.0034
17737	5.4348
17738	6.0796
17739	4.7273
17740	5.0191
17741	6.3478
17742	4.5212
17743	6.6151
17744	4.7143
17745	5.3263
17746	4.6249
17747	4.5548
17748	4.6325
17749	4.6692
17750	4.4338
17751	4.5832
17752	4.7546
17753	6.579
17754	4.7393
17755	5.8567
17756	5.2916
17757	5.1171
17758	6.899
17759	6.6095
17760	4.262
17761	4.6021
17762	2.1774
17763	6.2323
17764	4.5903
17765	4.9703
17766	4.5272
17767	5.471
17768	5.1279
17769	4.852
17770	6.4197
17771	5.0923
17772	5.1266
17773	4.7886
17774	6.109
17775	4.6809
17776	6.826
17777	5.6514
17778	5.224
17779	4.4017
17780	4.7528
17781	4.7638
17782	6.0063
17783	4.2964
17784	4.0207
17785	2.1088
17786	4.2429
17787	4.7635
17788	4.4116
17789	4.506
17790	4.2797
17791	4.5864
17792	4.6192
17793	4.5943
17794	5.1457
17795	3.3734
17796	7.1255
17797	4.6133
17798	5.2644
17799	4.9473
17800	5.4275
17801	5.8689
17802	4.4698
17803	4.6934
17804	2.7417
17805	4.9533
17806	4.9436
17807	4.7898
17808	4.4334
17809	4.9508
17810	4.4119
17811	4.7764
17812	4.5171
17813	5.4249
17814	4.5672
17815	4.6945
17816	5.235
17817	4.3229
17818	3.7968
17819	4.5017
17820	4.5789
17821	5.1745
17822	6.3721
17823	4.9985
17824	5.065
17825	5.1472
17826	4.2301
17827	4.969
17828	4.3506
17829	4.62
17830	5.1012
17831	4.5489
17832	6.1031
17833	4.062
17834	4.6539
17835	6.1494
17836	4.5921
17837	4.2644
17838	4.694
17839	3.5287
17840	4.6761
17841	5.0665
17842	4.8513
17843	5.5529
17844	4.7647
17845	4.7895
17846	4.5777
17847	4.5603
17848	4.5961
17849	4.6182
17850	4.6133
17851	4.1565
17852	6.682
17853	4.0565
17854	4.2446
17855	5.3069
17856	4.7505
17857	4.7871
17858	2.3634
17859	4.6089
17860	3.5687
17861	7.4518
17862	4.6384
17863	5.1366
17864	5.8312
17865	5.2776
17866	4.6985
17867	5.3821
17868	4.8908
17869	4.5947
17870	4.6179
17871	4.5671
17872	4.2002
17873	4.7307
17874	4.0846
17875	4.5161
17876	4.9569
17877	4.6403
17878	6.118
17879	4.3366
17880	6.7131
17881	6.0991
17882	5.0952
17883	4.585
17884	4.5626
17885	5.1439
17886	5.7486
17887	5.8808
17888	5.3068
17889	4.9048
17890	6.102
17891	5.6043
17892	5.4709
17893	5.318
17894	6.1268
17895	5.1044
17896	4.9725
17897	4.9696
17898	4.7432
17899	4.9237
17900	4.7197
17901	4.1808
17902	4.8848
17903	6.1581
17904	5.3975
17905	4.6029
17906	6.2958
17907	4.6133
17908	5.812
17909	0.80504
17910	5.2652
17911	4.9286
17912	4.8062
17913	4.5569
17914	5.3927
17915	4.454
17916	5.9173
17917	6.0978
17918	4.2228
17919	5.2675
17920	5.2522
17921	4.8813
17922	5.113
17923	4.6128
17924	5.1236
17925	4.4743
17926	4.8851
17927	4.2358
17928	6.4535
17929	4.5148
17930	4.5186
17931	6.6023
17932	5.7366
17933	4.5522
17934	4.6654
17935	4.9643
17936	4.6722
17937	4.7219
17938	5.004
17939	5.0863
17940	5.3205
17941	4.8653
17942	5.3827
17943	4.3723
17944	4.9056
17945	4.6401
17946	4.9777
17947	2.779
17948	4.725
17949	3.9577
17950	4.6117
17951	4.3263
17952	4.7217
17953	5.6915
17954	5.4225
17955	5.4137
17956	5.2497
17957	5.3969
17958	5.0357
17959	4.6026
17960	4.6534
17961	4.6223
17962	5.4308
17963	4.4635
17964	4.1112
17965	4.6998
17966	5.1272
17967	4.7766
17968	4.9435
17969	5.4454
17970	4.4708
17971	4.8181
17972	4.5826
17973	4.712
17974	4.904
17975	4.0301
17976	4.6563
17977	4.0857
17978	4.5994
17979	2.9712
17980	4.1967
17981	5.156
17982	4.4739
17983	5.3835
17984	4.3615
17985	4.4874
17986	5.4419
17987	4.432
17988	4.5604
17989	6.0775
17990	4.6083
17991	4.7658
17992	4.8394
17993	4.4442
17994	4.7057
17995	5.2179
17996	5.6056
17997	4.9131
17998	4.4808
17999	4.6299
18000	4.6112
18001	4.5715
18002	4.7264
18003	4.6017
18004	5.4434
18005	4.6421
18006	4.458
18007	4.5735
18008	4.5046
18009	5.812
18010	4.0238
18011	0.21914
18012	4.8342
18013	4.954
18014	5.6102
18015	5.1376
18016	5.3734
18017	4.8257
18018	4.4502
18019	1.8564
18020	4.0583
18021	6.3395
18022	4.9347
18023	5.3121
18024	5.7754
18025	4.7295
18026	6.6788
18027	5.2798
18028	5.0857
18029	4.6894
18030	4.3682
18031	5.0866
18032	4.6025
18033	6.6015
18034	4.1978
18035	4.742
18036	4.5781
18037	4.6759
18038	5.2121
18039	5.2852
18040	4.8591
18041	4.9792
18042	5.0518
18043	4.7701
18044	4.6876
18045	4.9511
18046	5.5564
18047	4.4994
18048	5.4802
18049	5.2645
18050	4.2254
18051	4.7693
18052	4.9337
18053	5.4647
18054	5.5444
18055	4.6236
18056	4.4579
18057	4.8838
18058	4.498
18059	4.7715
18060	5.034
18061	4.5632
18062	5.0777
18063	4.9451
18064	4.6338
18065	5.2844
18066	4.817
18067	4.6359
18068	4.5423
18069	5.0601
18070	5.3911
18071	5.2391
18072	5.0079
18073	4.7881
18074	2.7758
18075	6.4515
18076	4.9772
18077	4.8503
18078	4.0883
18079	4.5247
18080	4.4307
18081	4.7188
18082	4.5746
18083	4.697
18084	4.3895
18085	4.665
18086	4.8013
18087	4.6011
18088	4.6576
18089	4.5517
18090	4.4804
18091	4.5874
18092	4.6494
18093	4.5507
18094	4.5362
18095	4.5933
18096	4.5927
18097	4.6067
18098	4.3113
18099	4.7139
18100	4.4161
18101	4.5753
18102	4.3319
18103	4.1929
18104	4.4772
18105	4.6142
18106	5.5102
18107	4.7932
18108	4.332
18109	6.0001
18110	5.355
18111	4.2635
18112	4.81
18113	4.4945
18114	4.4779
18115	5.1068
18116	5.7136
18117	4.9156
18118	5.7993
18119	4.4408
18120	4.4671
18121	4.2338
18122	4.6194
18123	4.6886
18124	5.0739
18125	4.4135
18126	4.8678
18127	4.4097
18128	4.4925
18129	4.2444
18130	4.7407
18131	5.5242
18132	5.3403
18133	4.4791
18134	4.7184
18135	2.6305
18136	4.5665
18137	4.5661
18138	4.5832
18139	4.8333
18140	2.8323
18141	4.7366
18142	0.35386
18143	4.7084
18144	4.6406
18145	4.6749
18146	4.5234
18147	4.6453
18148	4.6031
18149	7.1288
18150	4.547
18151	4.5392
18152	4.4444
18153	5.7803
18154	4.0929
18155	4.3689
18156	4.8864
18157	4.3655
18158	4.5433
18159	4.6565
18160	4.8202
18161	5.6597
18162	4.9184
18163	4.2829
18164	4.8519
18165	7.4088
18166	4.7065
18167	5.4573
18168	6.3104
18169	4.7167
18170	4.7746
18171	4.9004
18172	4.6165
18173	2.7551
18174	4.4067
18175	5.3852
18176	4.5394
18177	4.7168
18178	4.4071
18179	4.0417
18180	4.6705
18181	4.0917
18182	4.5272
18183	4.3103
18184	4.8567
18185	5.0786
18186	5.0211
18187	5.8321
18188	5.7635
18189	4.7433
18190	6.1993
18191	4.6181
18192	4.6083
18193	5.4701
18194	4.6757
18195	3.8445
18196	4.369
18197	4.4744
18198	4.1476
18199	3.9024
18200	4.5989
18201	6.8255
18202	4.7149
18203	6.0749
18204	5.8603
18205	5.8754
18206	5.7663
18207	5.1247
18208	5.1091
18209	4.428
18210	5.3125
18211	4.8469
18212	4.4104
18213	4.6669
18214	4.5785
18215	4.5387
18216	5.2481
18217	4.9065
18218	4.3896
18219	4.4346
18220	5.9709
18221	4.6251
18222	4.1667
18223	3.9644
18224	5.0376
18225	4.085
18226	5.2804
18227	4.5359
18228	4.8446
18229	6.6828
18230	4.5981
18231	4.7406
18232	6.0385
18233	4.1683
18234	5.2759
18235	4.7926
18236	4.8253
18237	4.7189
18238	5.3488
18239	4.543
18240	4.4919
18241	4.6601
18242	4.3695
18243	4.5121
18244	4.2542
18245	3.9989
18246	4.214
18247	5.0564
18248	4.4977
18249	4.5783
18250	4.9937
18251	4.6557
18252	5.4418
18253	6.3799
18254	4.6621
18255	4.5442
18256	5.3789
18257	4.4304
18258	4.6972
18259	4.4736
18260	4.2697
18261	4.5943
18262	4.5745
18263	4.3252
18264	4.6089
18265	5.0144
18266	4.5328
18267	6.214
18268	4.9507
18269	4.3846
18270	4.7548
18271	4.7288
18272	4.5686
18273	4.8105
18274	4.7162
18275	4.9186
18276	4.6991
18277	4.3909
18278	4.3723
18279	4.535
18280	4.588
18281	4.6725
18282	4.4204
18283	6.7077
18284	4.8428
18285	4.3984
18286	4.509
18287	4.6363
18288	4.449
18289	4.959
18290	4.5325
18291	5.1451
18292	4.7548
18293	5.0124
18294	5.21
18295	5.1651
18296	4.4501
18297	2.0502
18298	4.6801
18299	4.1092
18300	4.2869
18301	4.2125
18302	4.1542
18303	6.0669
18304	4.4009
18305	5.3967
18306	4.9631
18307	5.0173
18308	4.9
18309	4.5934
18310	4.4841
18311	4.1331
18312	4.8094
18313	4.5973
18314	4.087
18315	3.8432
18316	2.4751
18317	4.7733
18318	4.002
18319	5.7426
18320	5.114
18321	4.4853
18322	4.554
18323	3.9947
18324	4.7313
18325	4.572
18326	4.5753
18327	4.337
18328	4.225
18329	4.8637
18330	5.1526
18331	5.4206
18332	5.2075
18333	6.5843
18334	4.5093
18335	4.2786
18336	4.6026
18337	4.5379
18338	4.4523
18339	4.6249
18340	5.0132
18341	5.3008
18342	5.7314
18343	4.6439
18344	4.5745
18345	4.9399
18346	4.592
18347	4.6908
18348	4.943
18349	4.6777
18350	4.8861
18351	4.6052
18352	3.7689
18353	5.1979
18354	4.9086
18355	4.8291
18356	5.7165
18357	4.727
18358	4.8068
18359	4.4993
18360	4.5851
18361	5.3721
18362	4.7511
18363	4.9369
18364	4.6523
18365	5.318
18366	5.3044
18367	4.6438
18368	6.2195
18369	5.4254
18370	5.5322
18371	4.6568
18372	5.5359
18373	4.3749
18374	4.8284
18375	4.9149
18376	5.743
18377	5.0711
18378	5.5421
18379	5.0533
18380	4.6311
18381	4.2025
18382	7.1824
18383	2.4165
18384	4.4214
18385	4.5166
18386	5.3281
18387	5.1594
18388	4.3798
18389	4.6171
18390	4.9185
18391	4.8011
18392	4.3105
18393	4.9389
18394	4.6724
18395	4.5473
18396	4.7452
18397	4.5227
18398	4.4445
18399	4.6022
18400	4.706
18401	5.9115
18402	4.6039
18403	4.6879
18404	4.4495
18405	5.0067
18406	5.8577
18407	5.4574
18408	4.6936
18409	4.8734
18410	4.5495
18411	4.7943
18412	6.0065
18413	4.9387
18414	4.3626
18415	4.6127
18416	4.7767
18417	4.7183
18418	7.1819
18419	4.7843
18420	5.6747
18421	4.8843
18422	5.4528
18423	4.2677
18424	6.0454
18425	4.4051
18426	4.5813
18427	6.4864
18428	4.5451
18429	4.555
18430	4.7739
18431	4.2252
18432	4.5497
18433	4.3083
18434	4.6168
18435	4.3459
18436	4.3344
18437	4.6914
18438	4.332
18439	4.6419
18440	4.5802
18441	4.4801
18442	6.7707
18443	4.1405
18444	5.9423
18445	4.5601
18446	4.8401
18447	4.6677
18448	4.7178
18449	4.725
18450	5.3081
18451	4.5808
18452	4.5571
18453	3.0394
18454	4.6277
18455	6.0383
18456	4.1226
18457	5.4118
18458	4.8049
18459	5.2878
18460	5.9365
18461	5.0022
18462	4.9064
18463	5.2515
18464	4.5666
18465	5.4259
18466	4.5145
18467	4.8362
18468	4.1081
18469	0.69912
18470	4.2911
18471	7.0947
18472	4.2832
18473	4.912
18474	4.7543
18475	1.1171
18476	5.2588
18477	5.0869
18478	4.9304
18479	4.5827
18480	5.1271
18481	4.9528
18482	4.4677
18483	4.4355
18484	5.0759
18485	4.5424
18486	5.4282
18487	0.44641
18488	5.2341
18489	4.7136
18490	5.6251
18491	4.6659
18492	5.1852
18493	5.3422
18494	4.5465
18495	4.5621
18496	5.3358
18497	4.6212
18498	4.6784
18499	4.4675
18500	4.5683
18501	4.7228
18502	4.5407
18503	7.0097
18504	4.4078
18505	6.0674
18506	4.6872
18507	6.4118
18508	4.6195
18509	4.7484
18510	4.7566
18511	4.8203
18512	4.7246
18513	4.9503
18514	4.9559
18515	4.2615
18516	4.5071
18517	4.4664
18518	5.1479
18519	6.4691
18520	4.2322
18521	4.877
18522	4.3359
18523	4.7559
18524	6.3457
18525	5.9002
18526	4.7617
18527	6.3396
18528	5.3683
18529	5.0286
18530	6.275
18531	4.5406
18532	4.632
18533	5.1107
18534	5.3159
18535	4.7407
18536	4.6236
18537	4.7153
18538	7.0978
18539	6.3076
18540	5.3144
18541	4.6712
18542	5.3249
18543	4.5932
18544	4.1659
18545	4.6102
18546	4.5655
18547	4.0589
18548	4.4245
18549	4.8064
18550	5.1947
18551	5.5849
18552	4.4855
18553	4.3266
18554	0.56661
18555	4.9184
18556	4.9501
18557	4.7424
18558	4.6128
18559	4.5572
18560	4.7663
18561	4.5794
18562	4.9913
18563	2.0186
18564	4.4748
18565	5.1429
18566	4.2433
18567	4.4041
18568	5.6018
18569	6.3298
18570	6.4842
18571	3.8349
18572	6.8292
18573	6.387
18574	4.6785
18575	5.7303
18576	7.275
18577	5.8623
18578	4.8548
18579	4.0563
18580	5.4591
18581	5.2694
18582	5.7501
18583	4.654
18584	5.1688
18585	5.3389
18586	4.7284
18587	5.689
18588	5.3698
18589	5.7114
18590	5.4956
18591	5.2516
18592	4.6967
18593	5.6381
18594	5.5721
18595	6.426
18596	5.0682
18597	4.5574
18598	4.063
18599	6.8772
18600	5.4544
18601	5.2691
18602	5.4285
18603	5.7162
18604	4.8646
18605	6.8395
18606	6.1077
18607	4.4644
18608	4.4012
18609	4.1798
18610	4.2717
18611	5.6544
18612	4.5841
18613	2.9617
18614	4.4666
18615	4.7427
18616	6.0216
18617	5.5191
18618	5.6806
18619	4.9497
18620	5.7402
18621	4.6733
18622	4.6735
18623	5.9636
18624	4.8934
18625	0.78799
18626	5.8114
18627	5.2262
18628	4.9523
18629	4.8226
18630	4.3318
18631	4.9446
18632	4.9571
18633	5.7108
18634	4.5708
18635	5.3317
18636	5.0788
18637	5.2131
18638	5.3931
18639	4.5922
18640	5.104
18641	4.6749
18642	4.9909
18643	1.3462
18644	5.6838
18645	5.0628
18646	5.163
18647	5.0178
18648	4.9459
18649	4.1703
18650	5.6693
18651	5.6542
18652	5.4107
18653	5.37
18654	4.8458
18655	4.8381
18656	4.4342
18657	2.1965
18658	4.3591
18659	4.6112
18660	5.582
18661	4.5783
18662	2.2894
18663	4.6217
18664	4.4709
18665	4.7671
18666	4.811
18667	4.7406
18668	4.3617
18669	4.6364
18670	4.549
18671	4.7677
18672	4.8219
18673	4.5994
18674	4.5598
18675	4.5295
18676	4.3053
18677	4.3696
18678	4.4752
18679	4.4845
18680	4.7945
18681	4.6354
18682	4.4747
18683	5.068
18684	4.2022
18685	4.377
18686	4.589
18687	6.6734
18688	4.6722
18689	4.1561
18690	4.6694
18691	4.7553
18692	4.408
18693	4.5584
18694	4.6573
18695	4.599
18696	5.244
18697	5.5538
18698	4.4087
18699	6.0576
18700	2.37
18701	4.7983
18702	4.5953
18703	4.608
18704	4.5089
18705	4.369
18706	5.6873
18707	5.1744
18708	5.3693
18709	6.8366
18710	5.9482
18711	4.8934
18712	7.0954
18713	6.4615
18714	6.6904
18715	4.0911
18716	4.7485
18717	4.439
18718	2.3445
18719	5.9004
18720	4.8056
18721	4.5177
18722	4.6477
18723	4.5668
18724	4.7391
18725	4.918
18726	4.4854
18727	6.1298
18728	6.6117
18729	4.7306
18730	4.6342
18731	4.476
18732	5.3048
18733	4.3705
18734	3.149
18735	6.0123
18736	4.9666
18737	4.4652
18738	4.8416
18739	5.001
18740	4.3481
18741	4.8748
18742	4.2293
18743	4.4697
18744	4.5142
18745	4.9632
18746	4.5398
18747	4.0741
18748	4.2741
18749	4.259
18750	4.4412
18751	5.4645
18752	4.703
18753	4.5934
18754	4.6148
18755	4.7518
18756	4.6073
18757	4.8361
18758	6.3287
18759	6.0971
18760	5.785
18761	3.0181
18762	5.7496
18763	4.4123
18764	4.8426
18765	4.5972
18766	4.698
18767	4.705
18768	7.8484
18769	4.9849
18770	4.9979
18771	5.0295
18772	4.8624
18773	4.7627
18774	4.3335
18775	4.5448
18776	4.4817
18777	4.3662
18778	6.3373
18779	6.5928
18780	6.5789
18781	6.1914
18782	5.9941
18783	5.8205
18784	4.0925
18785	3.2853
18786	5.3976
18787	5.2579
18788	6.698
18789	6.3282
18790	6.0594
18791	6.1765
18792	5.1152
18793	4.8286
18794	5.0469
18795	5.0686
18796	5.0175
18797	4.9136
18798	4.5661
18799	5.3057
18800	4.9032
18801	4.6263
18802	4.7569
18803	5.1004
18804	4.9155
18805	4.8437
18806	5.0832
18807	4.9791
18808	4.7962
18809	6.0954
18810	4.7068
18811	5.1835
18812	4.7205
18813	4.992
18814	4.826
18815	6.1302
18816	4.8402
18817	6.0511
18818	5.2121
18819	6.1203
18820	4.7722
18821	5.9849
18822	5.4611
18823	6.2516
18824	4.31
18825	4.6927
18826	5.9107
18827	6.304
18828	3.0199
18829	5.7381
18830	5.9358
18831	5.7813
18832	5.1001
18833	4.0941
18834	4.1089
18835	4.5739
18836	4.7639
18837	4.5789
18838	4.3008
18839	4.3406
18840	6.1488
18841	4.5652
18842	5.0679
18843	4.4415
18844	5.9506
18845	4.9254
18846	4.7919
18847	4.2887
18848	4.1991
18849	4.6862
18850	4.2156
18851	4.7073
18852	3.9617
18853	3.7515
18854	4.6976
18855	5.4701
18856	5.782
18857	5.6241
18858	2.7871
18859	5.0759
18860	6.2866
18861	6.5942
18862	6.0831
18863	6.1928
18864	5.8729
18865	5.729
18866	4.5776
18867	4.5581
18868	3.0326
18869	5.48
18870	4.5629
18871	4.532
18872	4.6821
18873	4.7342
18874	4.817
18875	4.8132
18876	4.8176
18877	4.4971
18878	4.5645
18879	4.8947
18880	4.7127
18881	4.8042
18882	4.8357
18883	4.7476
18884	4.6289
18885	4.8052
18886	4.5244
18887	4.7053
18888	5.8529
18889	4.5469
18890	6.2479
18891	5.4624
18892	4.729
18893	4.7099
18894	4.8106
18895	4.6001
18896	4.6957
18897	4.49
18898	4.3303
18899	4.6753
18900	6.861
18901	3.4195
18902	6.8943
18903	0.80228
18904	5.4691
18905	5.4659
18906	5.6379
18907	4.4312
18908	6.7177
18909	4.8426
18910	4.6148
18911	4.5739
18912	4.6107
18913	4.5278
18914	4.5878
18915	4.6968
18916	4.609
18917	4.3351
18918	4.643
18919	4.4272
18920	4.6254
18921	3.3774
18922	5.8629
18923	6.5066
18924	6.5609
18925	4.5303
18926	4.628
18927	7.0002
18928	4.6709
18929	5.7975
18930	2.1026
18931	4.7641
18932	4.9075
18933	4.6482
18934	4.8659
18935	5.0066
18936	4.1263
18937	4.7966
18938	4.7523
18939	6.3484
18940	6.024
18941	6.0009
18942	6.2127
18943	5.4168
18944	6.0975
18945	5.4195
18946	4.6094
18947	1.1017
18948	5.7771
18949	5.6205
18950	6.5986
18951	4.6116
18952	3.9015
18953	5.4923
18954	5.1873
18955	5.0865
18956	4.7805
18957	5.0681
18958	6.5706
18959	5.9297
18960	5.8869
18961	2.52
18962	5.1033
18963	5.4373
18964	4.7848
18965	5.4876
18966	5.8948
18967	5.9948
18968	5.8216
18969	6.1294
18970	6.5952
18971	4.1979
18972	6.1112
18973	5.3569
18974	5.7038
18975	5.6152
18976	5.8959
18977	4.6098
18978	5.1629
18979	4.9552
18980	4.2908
18981	7.1345
18982	4.6933
18983	4.9377
18984	4.7357
18985	2.8853
18986	4.0825
18987	5.0828
18988	4.6721
18989	6.1914
18990	4.4303
18991	4.7015
18992	5.8795
18993	3.7792
18994	4.4841
18995	4.6354
18996	4.2778
18997	6.7109
18998	5.8893
18999	5.4759
19000	4.8487
19001	4.7012
19002	5.3715
19003	6.1415
19004	3.7683
19005	5.4164
19006	2.7901
19007	6.0797
19008	5.4149
19009	5.1582
19010	3.724
19011	0.69562
19012	2.6528
19013	4.4423
19014	0.77757
19015	5.6991
19016	4.3464
19017	4.6199
19018	6.7563
19019	7.179
19020	2.9547
19021	4.6327
19022	5.0338
19023	3.374
19024	5.2571
19025	3.0117
19026	4.0062
19027	4.1848
19028	4.7027
19029	7.4731
19030	5.444
19031	4.8431
19032	4.2099
19033	4.2464
19034	1.4502
19035	6.8827
19036	5.2335
19037	4.98
19038	6.4637
19039	5.6103
19040	0.24854
19041	4.8009
19042	6.503
19043	1.7301
19044	4.7199
19045	4.5189
19046	11.071
19047	3.3882
19048	4.6191
19049	3.8218
19050	0.73313
19051	2.9812
19052	6.9014
19053	4.0153
19054	1.8441
19055	5.6593
19056	4.5266
19057	4.4829
19058	4.8599
19059	3.9301
19060	4.8786
19061	4.4631
19062	4.1631
19063	7.2753
19064	4.6311
19065	0.79627
19066	3.9975
19067	2.6934
19068	4.8515
19069	4.3305
19070	4.3308
19071	5.887
19072	5.4456
19073	8.1736
19074	2.4226
19075	7.4597
19076	6.2852
19077	4.7314
19078	3.943
19079	2.7781
19080	4.7893
19081	4.2112
19082	5.7671
19083	4.7515
19084	3.3654
19085	4.9766
19086	2.2022
19087	6.473
19088	3.0618
19089	3.1287
19090	4.4466
19091	3.5339
19092	10.426
19093	5.266e-002
19094	4.2531
19095	7.4267
19096	6.3834
19097	4.2739
19098	4.474
19099	4.3122
19100	6.4432
19101	4.1444
19102	4.2919
19103	4.8832
19104	4.74
19105	4.0751
19106	0.21235
19107	3.5532
19108	1.7266
19109	4.6061
19110	3.7774
19111	4.7834
19112	6.811
19113	4.6247
19114	2.264
19115	2.6593
19116	0.84326
19117	4.2561
19118	4.2225
19119	5.3712
19120	4.1276
19121	2.5661
19122	2.7091
19123	5.7758
19124	3.8059
19125	5.0278
19126	4.41
19127	4.3182
19128	1.294
19129	4.833
19130	6.5417
19131	2.4179
19132	2.6541
19133	6.5466
19134	11.555
19135	4.6103
19136	6.7495
19137	6.31
19138	6.0881
19139	7.1036
19140	4.9409
19141	0.36575
19142	4.4481
19143	6.5754
19144	4.793
19145	4.4062
19146	5.02
19147	3.9512
19148	6.4722
19149	0.31831
19150	0.2919
19151	5.3122
19152	7.2867
19153	0.60325
19154	4.2328
19155	2.9538
19156	4.3686
19157	6.9875
19158	4.5775
19159	2.706
19160	4.6042
19161	2.7062
19162	4.4701
19163	1.6772
19164	4.5012
19165	5.0327
19166	4.6562
19167	5.4803
19168	2.005
19169	3.4888
19170	0.6313
19171	5.0518
19172	4.3643
19173	5.2207
19174	2.817
19175	5.8838
19176	4.4286
19177	3.6018
19178	7.1096
19179	6.5036
19180	4.9616
19181	6.7887
19182	4.632
19183	4.6745
19184	2.9372
19185	2.7395
19186	4.3294
19187	4.0843
19188	4.1403e-002
19189	2.7127
19190	2.9485
19191	4.68
19192	5.3432
19193	2.8162
19194	7.1027
19195	0.94832
19196	0.68967
19197	0.72371
19198	4.2573
19199	1.2032
19200	4.6434
19201	2.8094
19202	6.9695
19203	5.8688
19204	4.6899
19205	7.0055
19206	6.5595
19207	5.0394
19208	0.2923
19209	4.1284
19210	3.1168
19211	6.707
19212	2.5396
19213	3.5181
19214	6.7714
19215	4.9807
19216	9.428
19217	4.6259
19218	4.3338
19219	5.4409
19220	5.8858
19221	4.8966
19222	3.4327
19223	4.8201
19224	3.2908
19225	4.1163
19226	5.4299
19227	1.2414
19228	1.2166
19229	2.7498
19230	6.0019
19231	3.7011
19232	3.772
19233	4.6497
19234	4.1303
19235	4.0207
19236	4.4535
19237	4.6132
19238	5.555
19239	4.3891
19240	4.7864
19241	0.15014
19242	2.2514
19243	1.352
19244	0.50338
19245	4.6215
19246	4.4532
19247	2.9532
19248	5.8139
19249	5.8759
19250	7.0694
19251	2.868
19252	6.6987
19253	2.9042
19254	3.1945
19255	6.0143
19256	5.0001
19257	4.6455
19258	6.4377
19259	4.3149
19260	4.9515
19261	6.9322
19262	5.1653
19263	0.90497
19264	4.3401
19265	4.4489
19266	5.8633
19267	6.8043
19268	3.1725
19269	5.062
19270	2.6435
19271	4.196
19272	2.9375
19273	5.5928
19274	4.2424
19275	6.1373
19276	2.5472
19277	2.5414
19278	0.73276
19279	3.9564
19280	1.7861
19281	6.8199
19282	6.9462
19283	7.0468
19284	4.7113
19285	3.8286
19286	3.8319
19287	3.901
19288	4.8195
19289	2.692
19290	4.2328
19291	0.58281
19292	8.1387
19293	17.292
19294	5.8661
19295	0.18438
19296	2.8779
19297	5.1477
19298	4.544
19299	4.8674
19300	0.83816
19301	2.0628
19302	2.8639
19303	4.4649
19304	4.4637
19305	5.804e-002
19306	4.625
19307	4.8455
19308	4.213
19309	4.8085
19310	5.4768
19311	4.6333
19312	5.7366
19313	4.1135
19314	4.364
19315	2.8463
19316	6.1431
19317	4.514
19318	6.4912
19319	6.7001
19320	6.8534
19321	1.6471
19322	2.4398
19323	6.7365
19324	4.3471
19325	4.1019
19326	5.824
19327	4.8318
19328	5.7385
19329	3.3568e-002
19330	2.6895
19331	4.9682
19332	5.1144
19333	3.3538
19334	4.3596
19335	3.2147
19336	4.8509
19337	0.28468
19338	2.7823
19339	9.8634
19340	21.162
19341	0.82555
19342	21.136
19343	4.7067
19344	4.7841
19345	4.9188
19346	2.3375
19347	0.72801
19348	1.4207
19349	3.8847
19350	5.4413
19351	4.2851
19352	2.594
19353	4.6158
19354	5.5737
19355	6.1162
19356	6.3173
19357	2.7857
19358	6.4448
19359	4.605
19360	3.9595
19361	4.621
19362	4.5954
19363	3.5961
19364	4.7475
19365	10.02
19366	6.5735
19367	6.8217
19368	3.6643
19369	0.47797
19370	3.742
19371	0.25324
19372	4.4064
19373	4.7336
19374	2.775
19375	3.253
19376	5.1243
19377	5.8714
19378	2.0621
19379	2.6289
19380	4.7905
19381	5.3394
19382	0.21214
19383	0.41274
19384	4.8753
19385	2.5826
19386	4.3083
19387	4.9539
19388	6.3845
19389	4.953
19390	5.0893
19391	3.7886
19392	3.6626
19393	4.8348
19394	4.6373
19395	4.1012
19396	4.2439
19397	3.4503
19398	4.2357
19399	5.2069
19400	2.628
19401	2.7
19402	7.2373
19403	4.7931
19404	4.5796
19405	2.4789
19406	3.6778
19407	4.5681
19408	3.0883
19409	4.129
19410	4.6421
19411	4.171
19412	6.6898
19413	5.8267
19414	6.7819
19415	4.0676
19416	7.5156
19417	4.0601
19418	4.9571
19419	5.218
19420	3.6216
19421	4.5491
19422	6.21
19423	6.767
19424	5.5819
19425	5.8509
19426	0.57403
19427	2.5767
19428	4.5247
19429	5.6944
19430	4.1616
19431	1.7571
19432	6.9888
19433	3.7357
19434	4.2847
19435	3.0098
19436	6.7056
19437	6.6074
19438	0.81013
19439	4.6307
19440	0.41198
19441	0.20034
19442	0.56966
19443	6.7033
19444	9.549
19445	4.5133
19446	4.5939
19447	2.6093
19448	4.7169
19449	4.5459
19450	4.3257
19451	4.4413
19452	5.3796
19453	4.3855
19454	3.6338
19455	4.554
19456	0.32876
19457	4.8852
19458	4.4379
19459	13.013
19460	4.1299
19461	5.2879
19462	6.2127
19463	3.5504
19464	2.6654
19465	6.1415
19466	6.0893
19467	4.5131
19468	1.9029
19469	3.5525
19470	7.0241
19471	4.8103
19472	5.9094
19473	5.0527
19474	5.5471
19475	1.1209
19476	2.1943
19477	4.8602
19478	4.7024
19479	2.1355
19480	4.41
19481	5.9257e-002
19482	7.2235
19483	0.24314
19484	6.9144
19485	1.9278
19486	7.9104
19487	5.8362
19488	0.66688
19489	2.8238
19490	0.80858
19491	3.9963
19492	7.0893
19493	1.992
19494	2.7298
19495	2.6257
19496	2.5971
19497	1.7436
19498	3.1561
19499	1.0513
19500	4.2998
19501	3.6919
19502	4.8053
19503	6.6262
19504	0.62367
19505	0.20262
19506	3.7214
19507	7.1092
19508	4.7745
19509	0.81029
19510	6.8802
19511	7.2254
19512	6.7553
19513	4.6375
19514	3.1542
19515	5.8361
19516	4.7496
19517	3.8549
19518	0.31028
19519	4.114
19520	4.4204
19521	2.9663
19522	4.6019
19523	4.6158
19524	4.1454
19525	7.2471
19526	5.8568
19527	3.7541
19528	3.7843
19529	6.0812
19530	2.5857
19531	1.0778
19532	2.2621
19533	4.0293
19534	2.8716
19535	2.8442
19536	6.9073
19537	6.8735
19538	6.3611
19539	5.3796
19540	7.0122
19541	4.9511
19542	4.7355
19543	6.4488
19544	2.5671e-002
19545	2.0456
19546	3.3635
19547	3.2701
19548	5.3814
19549	4.0453
19550	2.7602
19551	4.5815
19552	5.8216
19553	4.1075
19554	7.2811
19555	6.8758
19556	6.9663
19557	2.6369
19558	2.4541
19559	2.9232
19560	1.8096
19561	2.9233
19562	0.5818
19563	3.9383
19564	5.7039
19565	4.9937
19566	3.8595
19567	3.4818
19568	6.3572
19569	5.4646
19570	3.5255
19571	2.7909
19572	4.5643
19573	4.7365
19574	4.9637
19575	4.6698
19576	1.7216
19577	2.8456
19578	6.3988
19579	4.5636
19580	9.786
19581	6.1933
19582	3.0127
19583	6.7925
19584	6.3957
19585	2.7166
19586	2.6086
19587	3.1273
19588	2.954
19589	0.28511
19590	3.103e-002
19591	2.8347
19592	7.9886
19593	2.8426
19594	2.867
19595	0.2574
19596	2.7481
19597	5.742
19598	4.8247
19599	4.1105
19600	5.591
19601	6.1832
19602	3.0208
19603	7.2413
19604	4.5813
19605	0.69568
19606	3.267
19607	5.1596
19608	3.5196
19609	6.7193
19610	3.004
19611	1.0675
19612	4.3697
19613	6.1272
19614	1.6362
19615	0.81811
19616	3.091
19617	3.0769
19618	2.3289
19619	4.5892
19620	4.1318
19621	4.8458
19622	11.47
19623	2.8622
19624	0.30469
19625	2.6731
19626	2.5281
19627	0.17317
19628	3.044
19629	2.8304
19630	3.3754
19631	1.6209
19632	2.9009
19633	5.2591
19634	4.032
19635	2.7614
19636	4.6628
19637	4.5719
19638	2.6972
19639	4.7558
19640	4.6045
19641	4.0809
19642	2.1672
19643	4.8893
19644	4.7239
19645	4.242
19646	5.6937
19647	0.61255
19648	6.2078
19649	3.4602
19650	0.61525
19651	5.8613
19652	1.95e-002
19653	3.9702
19654	7.5039
19655	3.7619
19656	4.5045
19657	4.5428
19658	3.99
19659	4.3272
19660	4.609
19661	4.7432
19662	7.2292
19663	8.9927
19664	2.5662
19665	5.587
19666	7.275
19667	5.7836
19668	0.15471
19669	0.3912
19670	4.8043
19671	10.149
19672	4.7247
19673	3.5248
19674	2.323
19675	3.2449
19676	5.0233
19677	2.5883
19678	4.3861
19679	0.3236
19680	3.3844
19681	0.21018
19682	4.6632
19683	5.276
19684	1.2517
19685	6.2246
19686	5.4374
19687	2.9797
19688	6.6635
19689	2.6893
19690	10.769
19691	2.8409
19692	2.8793
19693	4.5734
19694	4.5651
19695	4.2663
19696	4.5799
19697	3.2641
19698	3.5254
19699	0.24922
19700	0.53754
19701	2.1383
19702	2.1237
19703	2.0132
19704	3.7323
19705	0.15316
19706	3.7801
19707	3.8555
19708	21.208
19709	0.33743
19710	3.1257
19711	1.0352
19712	7.0759
19713	12.324
19714	4.7583
19715	0.11475
19716	3.0172
19717	1.7884
19718	4.854
19719	4.7463
19720	2.5614
19721	3.8329
19722	1.9136
19723	4.964
19724	4.8176
19725	4.7285
19726	6.1203
19727	4.613
19728	4.2669
19729	6.5994
19730	3.8528
19731	2.5873
19732	2.848
19733	5.9466
19734	6.4779
19735	5.4177
19736	4.7125
19737	4.6484
19738	9.3145
19739	3.0446
19740	0.31616
19741	0.48873
19742	10.475
19743	7.9033
19744	4.6519
19745	2.5773
19746	4.4632
19747	1.1585
19748	5.1445
19749	6.7729
19750	0.27719
19751	5.9263
19752	3.1517
19753	5.5069
19754	7.1338
19755	4.211
19756	7.7814
19757	4.6676
19758	5.0423
19759	5.1665
19760	5.8695
19761	4.1354
19762	5.1537
19763	5.785
19764	2.9435
19765	4.1708
19766	2.0196
19767	2.562
19768	0.44693
19769	4.7497
19770	8.8625
19771	2.8149
19772	2.4732
19773	4.7732
19774	9.8716
19775	6.3364
19776	7.3351
19777	4.9
19778	5.2451
19779	4.4596
19780	2.227
19781	4.2667
19782	6.7545
19783	5.6975
19784	0.20514
19785	5.2712
19786	4.091
19787	4.9455
19788	4.3311
19789	4.5813
19790	1.9671
19791	4.6427
19792	4.3762
19793	5.8271
19794	3.0901
19795	2.9225
19796	6.7698
19797	15.718
19798	3.7283
19799	2.6186
19800	0.51219
19801	3.1972
19802	0.69262
19803	4.6051
19804	7.4147
19805	0.80562
19806	2.9318
19807	3.0796
19808	7.0334
19809	2.9771
19810	0.7701
19811	3.013
19812	6.5385
19813	1.7387
19814	4.8124
19815	4.7437
19816	4.4644
19817	6.7691
19818	5.5495
19819	9.0098
19820	0.59019
19821	0.40476
19822	4.8214
19823	6.1232
19824	4.5108
19825	4.0219
19826	4.7389
19827	3.981
19828	4.4477
19829	4.0641
19830	4.6349
19831	4.5544
19832	4.5431
19833	4.5869
19834	4.3789
19835	2.9364
19836	6.7946
19837	2.5907
19838	5.0433
19839	2.6934
19840	3.68
19841	6.7572
19842	3.0798
19843	2.7455
19844	0.81358
19845	1.1319
19846	4.9318
19847	5.8095
19848	0.27643
19849	1.2417
19850	1.5739
19851	3.9435
19852	4.2637
19853	4.6776
19854	2.3777
19855	4.7742
19856	2.6266
19857	2.8072
19858	5.7429
19859	5.198
19860	2.7309
19861	3.1191
19862	8.2824
19863	4.4804
19864	6.9804
19865	2.4888
19866	5.2303e-002
19867	4.4413
19868	6.7274
19869	0.52379
19870	3.0369
19871	5.8096
19872	0.38319
19873	3.8209
19874	0.44901
19875	0.53305
19876	0.49575
19877	6.8598
19878	0.80892
19879	0.22058
19880	3.0073e-002
19881	2.87
19882	3.1187e-002
19883	0.67518
19884	2.0593
19885	1.2634
19886	6.9607
19887	0.13673
19888	0.47587
19889	3.4993
19890	10.188
19891	5.8896
19892	2.6759
19893	2.4302
19894	4.5244
19895	6.3736
19896	3.8491
19897	2.6083
19898	4.5767
19899	0.7999
19900	7.8986
19901	2.6048
19902	3.0858
19903	5.8899
19904	2.6728
19905	6.6676
19906	0.70572
19907	5.8224
19908	4.2965
19909	0.61394
19910	0.74683
19911	5.2621
19912	2.7277
19913	0.75319
19914	12.878
19915	0.72117
19916	4.6206
19917	6.7046
19918	4.4652
19919	6.3608
19920	1.2463
19921	4.9828
19922	7.475
19923	2.1943
19924	6.6741
19925	5.5278
19926	1.8856
19927	6.328
19928	6.9732
19929	5.4865
19930	0.61461
19931	1.4067
19932	0.46982
19933	2.8328
19934	2.7928
19935	4.8456
19936	6.7927
19937	5.0602
19938	6.1964
19939	7.214
19940	3.6506
19941	1.39
19942	4.6717
19943	2.6268
19944	3.0671
19945	4.3273
19946	3.6682
19947	3.3066
19948	2.9966
19949	6.6176
19950	1.1893
19951	2.637
19952	2.7422
19953	2.7114
19954	0.4881
19955	0.37629
19956	0.65288
19957	5.4904
19958	6.5023
19959	0.45603
19960	0.11977
19961	2.8424
19962	8.6174
19963	8.9886
19964	0.28673
19965	2.3129
19966	5.369
19967	2.9457
19968	6.2371
19969	0.19354
19970	2.8545
19971	3.2515
19972	0.17149
19973	7.4447
19974	4.8092
19975	6.541
19976	13.569
19977	2.9743
19978	2.7246
19979	2.6315
19980	2.9699
19981	2.9562
19982	3.4836
19983	2.2949
19984	3.1485
19985	2.065
19986	4.1183
19987	3.0379
19988	7.9152
19989	5.6769
19990	6.1988
19991	6.7608
19992	6.8969
19993	3.9254
19994	4.7253
19995	4.6116
19996	5.7254
19997	4.5844
19998	2.9379
19999	4.358
20000	3.7552
20001	2.2589
20002	2.6913
20003	3.4481
20004	5.1465
20005	6.7867
20006	4.9145
20007	2.2607
20008	2.2941
20009	4.8803
20010	4.6114
20011	4.5439
20012	4.8286
20013	4.6346
20014	6.3033
20015	4.4831
20016	4.8555
20017	4.1958
20018	5.2565
20019	4.8329
20020	0.25988
20021	15.498
20022	9.8726
20023	9.1345
20024	16.15
20025	4.1559
20026	6.2441
20027	4.1878
20028	6.4544
20029	3.3366
20030	2.7364
20031	6.6847
20032	2.5735
20033	5.3623
20034	6.3239
20035	0.13502
20036	2.0531
20037	1.7034e-002
20038	4.1843
20039	2.907
20040	4.8746
20041	6.0361
20042	0.6459
20043	4.8485
20044	5.2649
20045	6.8231
20046	4.8125
20047	4.479
20048	4.1999
20049	6.6517
20050	6.333
20051	4.442
20052	3.4137
20053	4.8471
20054	4.0799
20055	2.6971
20056	7.5389
20057	1.7173
20058	6.7857
20059	3.1849
20060	0.93045
20061	4.8596
20062	1.7234
20063	7.445e-002
20064	3.1665
20065	3.0907
20066	5.6515
20067	5.0954
20068	2.0198
20069	5.7172e-002
20070	5.1487
20071	6.8767
20072	0.20371
20073	1.737
20074	5.0403
20075	0.20198
20076	6.8539
20077	2.6516
20078	1.3605
20079	2.8456
20080	0.47835
20081	0.33846
20082	0.78538
20083	1.6794
20084	6.1489e-002
20085	0.26918
20086	4.8352
20087	0.40673
20088	4.7327
20089	3.4451
20090	5.4672
20091	0.45818
20092	2.7802
20093	4.3167
20094	4.7615
20095	0.35444
20096	2.2167e-002
20097	2.2442
20098	2.6518
20099	2.6638
20100	5.0921
20101	5.325
20102	6.0113
20103	5.0419
20104	3.7855
20105	2.0739
20106	10.37
20107	6.1341
20108	4.8359
20109	2.9201
20110	10.269
20111	2.368
20112	3.9176
20113	1.974
20114	4.6428
20115	2.196
20116	2.5237
20117	3.314
20118	1.6786
20119	1.666
20120	4.4193
20121	6.65
20122	4.3131
20123	0.51395
20124	3.1933
20125	1.9786
20126	4.7095
20127	4.0074
20128	5.8369
20129	3.1048
20130	6.2966
20131	2.6629
20132	4.6273
20133	0.20186
20134	2.7001
20135	1.8492
20136	6.0142
20137	0.21029
20138	5.0196
20139	6.2606
20140	3.2289
20141	3.9253
20142	2.6313
20143	4.956
20144	2.0589
20145	7.7245
20146	1.5803
20147	0.27567
20148	3.1376
20149	6.4895
20150	23.268
20151	5.295
20152	5.2789
20153	5.4872
20154	5.9417
20155	5.1587
20156	6.184
20157	5.9171
20158	5.4012
20159	4.8545
20160	3.1234
20161	4.3946
20162	4.9845
20163	7.1233
20164	4.25
20165	4.4398
20166	4.7285
20167	4.7773
20168	3.4239
20169	4.2365
20170	6.8325
20171	3.3732
20172	3.0415
20173	4.6645
20174	4.8527
20175	4.6106
20176	4.7503
20177	3.5619
20178	4.85
20179	4.7857
20180	2.3114
20181	4.457
20182	2.7002
20183	4.933
20184	4.5567
20185	5.2834
20186	4.3223
20187	2.7747
20188	2.7471
20189	3.0158
20190	5.4606
20191	2.6883
20192	4.3841
20193	2.177
20194	2.9545
20195	2.4618
20196	6.8092
20197	3.2789
20198	3.1411
20199	5.8456
20200	5.1965
20201	4.9624
20202	7.0811
20203	17.312
20204	2.9287
20205	5.8806
20206	4.5519
20207	3.0269
20208	2.5315
20209	4.8098
20210	4.7153
20211	5.1292
20212	10.23
20213	7.9827
20214	8.0855
20215	0.33544
20216	5.7326
20217	18.405
20218	5.8838
20219	2.6995
20220	5.6845
20221	4.6625
20222	3.2797
20223	4.5785
20224	4.5625
20225	6.2532
20226	3.5545
20227	12.192
20228	4.6345
20229	6.3634
20230	1.6231
20231	6.7159
20232	2.7124
20233	2.1953
20234	2.6264
20235	1.4204
20236	6.4048
20237	7.4916
20238	3.9174
20239	4.396
20240	4.2509
20241	6.3671
20242	6.6248
20243	10.24
20244	0.76717
20245	0.61253
20246	3.2469
20247	6.1564
20248	0.8215
20249	3.9722
20250	5.5948
20251	2.6739
20252	1.5425
20253	3.1632
20254	7.002
20255	2.9512
20256	2.4639
20257	2.7775
20258	2.7531
20259	3.1946
20260	5.2841
20261	6.2123
20262	4.6078
20263	7.324
20264	6.6085
20265	3.6468
20266	3.1357
20267	2.4491
20268	2.607
20269	0.28743
20270	0.79261
20271	4.7112
20272	2.7543
20273	2.6049
20274	2.9629
20275	2.2011
20276	7.1985
20277	7.2823
20278	3.9699
20279	0.82222
20280	0.49819
20281	3.7798
20282	4.1231
20283	0.18649
20284	3.74
20285	4.8508e-002
20286	3.0872
20287	0.32885
20288	0.24977
20289	0.7733
20290	0.33061
20291	7.3648
20292	5.3717
20293	3.1489
20294	4.1921
20295	0.94926
20296	4.8068
20297	6.8838
20298	3.6764
20299	7.0173
20300	4.535
20301	0.62505
20302	0.69639
20303	3.3349
20304	4.1198
20305	6.7792
20306	4.8194
20307	0.80426
20308	1.9517e-002
20309	3.1524
20310	2.1136
20311	6.5364
20312	2.6084
20313	6.7305
20314	2.523
20315	6.4624
20316	3.2331
20317	4.2722
20318	7.087
20319	2.6956
20320	2.6451
20321	7.2313
20322	6.3239
20323	4.916
20324	2.6551
20325	3.7923
20326	2.6173
20327	3.4875
20328	4.4708
20329	3.3408
20330	2.3025
20331	4.7101
20332	2.8934
20333	7.5012
20334	6.8693
20335	6.4753
20336	2.8461
20337	4.6794
20338	7.1024
20339	2.746
20340	4.5673
20341	4.6403
20342	4.6879
20343	4.5791
20344	4.5244
20345	4.8436
20346	4.6858
20347	5.1607
20348	4.3907
20349	4.4698
20350	1.9776
20351	4.6424
20352	4.6386
20353	4.9618
20354	4.9036
20355	4.7533
20356	5.0136
20357	4.1973
20358	4.6906
20359	3.2082
20360	4.2342
20361	4.103
20362	3.3686
20363	4.8436
20364	4.7208
20365	5.5066
20366	7.1103
20367	4.7368
20368	4.8167
20369	5.6406
20370	2.9265
20371	0.24823
20372	2.8479
20373	7.529
20374	2.5877
20375	0.6479
20376	0.51898
20377	4.7694e-002
20378	0.53417
20379	7.567
20380	4.9749
20381	6.503
20382	2.9505
20383	0.28665
20384	0.17151
20385	4.3109
20386	4.5189
20387	7.0882
20388	3.2816
20389	4.4278
20390	4.6786
20391	5.1641
20392	2.5265
20393	0.20396
20394	6.2925
20395	3.4232
20396	2.8098
20397	3.178
20398	4.0239
20399	7.31
20400	2.6955
20401	4.1673
20402	6.277
20403	3.4482
20404	4.3996
20405	4.0948
20406	4.3647
20407	9.7191
20408	2.6222
20409	5.8894
20410	0.24493
20411	2.8185
20412	0.27321
20413	6.8788
20414	0.34369
20415	6.7207
20416	6.7181
20417	7.1479
20418	6.735
20419	4.2679
20420	4.0431
20421	0.82165
20422	2.8346
20423	4.2967
20424	5.4862
20425	6.2172
20426	6.899
20427	5.5413
20428	3.7351
20429	6.4484
20430	7.1342
20431	3.2315
20432	6.1538
20433	1.7354
20434	6.1521
20435	4.3055
20436	7.214
20437	4.5753
20438	5.0736
20439	4.4764
20440	3.0837
20441	2.5271
20442	4.0703
20443	5.6157
20444	4.3038
20445	2.78
20446	4.953
20447	4.5122
20448	5.0499
20449	7.0393
20450	1.9448
20451	4.7413
20452	2.7355
20453	2.262
20454	0.6773
20455	4.3846
20456	0.81646
20457	4.4368
20458	6.5973
20459	0.62115
20460	6.7545
20461	2.6795
20462	2.7073
20463	3.0008
20464	0.76741
20465	3.6753
20466	2.9933
20467	4.7068
20468	2.468
20469	6.3137
20470	3.4786
20471	3.5316
20472	3.1872
20473	0.56074
20474	0.14301
20475	0.81517
20476	2.9767
20477	0.37581
20478	0.77268
20479	4.7268
20480	7.1474e-002
20481	15.361
20482	4.8122
20483	4.7385
20484	0.5338
20485	3.1826
20486	0.56288
20487	4.596
20488	4.9093
20489	4.7522
20490	4.7307
20491	4.9287
20492	4.6636
20493	5.1063
20494	2.1666
20495	4.8097
20496	4.2739
20497	4.822
20498	5.4297
20499	4.5835
20500	3.8821
20501	4.6191
20502	4.3579
20503	4.5346
20504	4.3874
20505	4.228
20506	3.6068
20507	6.7053
20508	6.8773
20509	3.6244
20510	5.2421
20511	6.8975
20512	7.3137
20513	6.0924
20514	3.2248
20515	4.0826
20516	2.5754
20517	6.3284
20518	3.1787
20519	2.9591
20520	4.1069
20521	5.0696
20522	3.8728
20523	4.5323
20524	6.7241
20525	10.355
20526	0.47473
20527	2.9208
20528	4.5579
20529	4.2743
20530	2.7553
20531	5.8658
20532	2.7432
20533	6.7954
20534	3.0153
20535	0.46424
20536	3.0421
20537	0.19304
20538	3.0767
20539	0.24368
20540	0.8268
20541	1.3728
20542	1.0587
20543	3.4136
20544	8.9926
20545	6.8108
20546	0.80134
20547	10.796
20548	0.77986
20549	2.9459
20550	0.26743
20551	1.7184
20552	4.3645
20553	4.073
20554	1.8702
20555	5.3473
20556	2.5381
20557	4.7911
20558	0.82681
20559	4.0347
20560	4.7183
20561	4.7813
20562	3.5358
20563	4.6221
20564	2.9668
20565	5.2435
20566	2.3857
20567	2.3272
20568	5.3035
20569	4.8268
20570	3.9964
20571	5.5664
20572	3.839
20573	2.6498
20574	2.5076
20575	4.088
20576	3.4113
20577	2.8793
20578	4.1453
20579	7.3042
20580	6.5105
20581	3.7951
20582	2.8851
20583	6.1122
20584	3.0085
20585	23.22
20586	0.15365
20587	11.567
20588	0.43349
20589	9.336
20590	0.26998
20591	9.1609
20592	9.6287
20593	6.8491
20594	2.2469
20595	5.8509
20596	4.0594
20597	8.6181
20598	6.1093
20599	8.3639
20600	0.61617
20601	4.4189e-002
20602	8.7421e-002
20603	5.5336e-002
20604	5.9738e-002
20605	4.9393e-002
20606	8.056e-002
20607	6.2693e-002
20608	0.21671
20609	0.61532
20610	0.58894
20611	2.2361e-002
20612	0.27177
20613	0.3283
20614	0.79012
20615	0.20414
20616	5.8103
20617	0.73215
20618	0.55936
20619	0.96695
20620	0.80523
20621	5.9583
20622	4.1119
20623	6.8781
20624	4.044
20625	2.9813
20626	3.7309
20627	3.4165
20628	0.2125
20629	3.144
20630	1.352
20631	5.7222
20632	1.6707
20633	3.7429
20634	4.9084
20635	2.1638
20636	1.8394
20637	2.1656
20638	2.6949e-002
20639	6.1407
20640	0.91692
20641	1.6075
20642	2.6908
20643	1.1368
20644	2.259
20645	3.1573
20646	3.785
20647	2.961
20648	2.8346
20649	6.5894
20650	5.1938
20651	3.7362
20652	5.6626
20653	0.81608
20654	2.8583
20655	10.554
20656	0.61816
20657	0.63515
20658	3.2419
20659	1.3619
20660	2.731
20661	1.2608
20662	0.21831
20663	0.94583
20664	0.32227
20665	0.94745
20666	2.0831e-002
20667	3.1487
20668	6.604
20669	1.2546
20670	2.2637
20671	2.8495
20672	2.6048
20673	5.1213
20674	3.1514
20675	2.7035
20676	5.5516
20677	3.0871
20678	4.2314
20679	2.731
20680	2.7345
20681	2.4127
20682	2.6843
20683	3.0055
20684	3.0694
20685	2.6273
20686	6.2815
20687	4.1199
20688	2.218
20689	4.537
20690	4.6049
20691	2.5727
20692	4.8225
20693	5.6703
20694	2.3279
20695	4.6068
20696	6.6097
20697	4.2239
20698	1.3132
20699	4.468
20700	4.0676
20701	2.5643
20702	3.8798
20703	2.2774
20704	5.4419
20705	6.3387
20706	3.1308
20707	5.4739
20708	5.5949
20709	3.1715
20710	5.2938
20711	5.431
20712	6.5653
20713	2.8532
20714	2.7263
20715	3.5293
20716	2.6068
20717	2.9533
20718	2.6605
20719	4.1688
20720	4.7556
20721	4.539
20722	3.2959
20723	4.1606
20724	5.1088
20725	2.3352
20726	5.5533
20727	8.3619
20728	0.4711
20729	0.26685
20730	0.26461
20731	6.1616
20732	6.9731
20733	9.5732
20734	1.7797
20735	2.7096
20736	2.2846
20737	2.7169
20738	9.8669
20739	0.61748
20740	15.392
20741	2.645
20742	2.7087
20743	3.1056
20744	2.6018
20745	0.19357
20746	6.8612
20747	6.618
20748	5.896
20749	6.4588
20750	6.4089
20751	2.0425
20752	1.5064
20753	6.3531
20754	2.0442
20755	5.8777
20756	6.4112
20757	2.9439
20758	2.933
20759	5.8573
20760	2.8392
20761	6.7591
20762	5.9972
20763	6.4206
20764	6.6897
20765	6.5966
20766	6.1295
20767	2.9054
20768	2.4063e-002
20769	2.2605e-002
20770	0.69219
20771	10.771
20772	3.3458
20773	4.446
20774	3.371
20775	6.7971
20776	4.038
20777	7.4126
20778	4.6819
20779	7.2062
20780	4.7122
20781	2.6433
20782	4.4538
20783	2.8877
20784	5.2887
20785	2.6809
20786	2.452
20787	4.445
20788	3.0053
20789	4.9092
20790	5.3833
20791	2.4861
20792	5.8323
20793	3.8892
20794	2.8365
20795	4.9047
20796	4.1939
20797	4.6255
20798	3.3006
20799	5.42
20800	4.556
20801	4.7158
20802	4.2734
20803	3.9283
20804	4.4379
20805	3.7751
20806	2.5209
20807	3.3976
20808	7.7203
20809	2.5989
20810	4.7109
20811	2.9378
20812	2.9342
20813	4.1144
20814	1.8586
20815	4.7344
20816	4.0608
20817	5.2071
20818	3.9092
20819	4.0196
20820	2.8897
20821	3.0698
20822	2.4353
20823	6.6731
20824	4.4501
20825	2.3602
20826	3.0024
20827	3.3952
20828	6.491
20829	6.654
20830	6.3148
20831	4.7308
20832	3.9335
20833	4.775
20834	3.6176
20835	4.1429
20836	4.3704
20837	4.7234
20838	4.4275
20839	4.6937
20840	4.9392
20841	4.2368
20842	5.9884
20843	8.9377
20844	6.2643
20845	10.479
20846	13.653
20847	9.5145
20848	10.037
20849	8.8632
20850	9.5598
20851	0.15012
20852	21.209
20853	10.183
20854	4.4924
20855	3.3025
20856	18.819
20857	17.513
20858	2.8665
20859	7.0543
20860	4.3058e-002
20861	2.7337
20862	6.1629e-002
20863	3.351
20864	6.2196
20865	4.1728
20866	2.6422
20867	2.891
20868	2.9997
20869	4.7119
20870	6.8142
20871	3.6033
20872	6.8688
20873	5.378
20874	3.2195
20875	4.9007
20876	4.3838
20877	6.9734
20878	6.0092
20879	1.6949
20880	5.1312
20881	4.3782
20882	2.883
20883	0.83774
20884	4.607
20885	0.80578
20886	2.7914
20887	3.2781
20888	4.2757
20889	4.1882
20890	8.3369
20891	6.3538
20892	8.4224
20893	12.74
20894	5.8535
20895	6.3778
20896	4.1034
20897	7.6222
20898	6.3061
20899	6.6534
20900	5.6195
20901	6.0794
20902	6.5428
20903	7.0402
20904	2.2175
20905	5.2598e-002
20906	0.87742
20907	3.9324
20908	4.5979
20909	7.2188
20910	4.7325
20911	0.56673
20912	4.1496
20913	0.47757
20914	1.0666
20915	0.27766
20916	0.74059
20917	0.60061
20918	0.69508
20919	0.38959
20920	0.59644
20921	4.4279
20922	2.0932
20923	4.6094
20924	2.3514
20925	5.1964
20926	5.8509
20927	6.9575
20928	2.2306
20929	3.7201
20930	4.5604
20931	4.1088
20932	0.83288
20933	1.1289
20934	4.755
20935	2.9314
20936	10.799
20937	4.5734
20938	0.7948
20939	0.48652
20940	0.5766
20941	0.24904
20942	6.2306e-002
20943	4.3802
20944	0.49826
20945	4.6141e-002
20946	0.26708
20947	6.0332
20948	0.46907
20949	0.73843
20950	5.2963
20951	5.173
20952	3.2785
20953	3.1114
20954	6.6991
20955	7.3355
20956	3.2977
20957	5.2806
20958	4.6217
20959	3.2086
20960	2.0882
20961	1.2413
20962	2.9288
20963	0.34194
20964	0.47341
20965	7.2473
20966	5.8616
20967	3.4795
20968	4.365
20969	5.1797
20970	2.5618
20971	2.6832
20972	0.77215
20973	1.2027
20974	3.7903
20975	2.9854
20976	3.4737
20977	4.9093
20978	4.7329
20979	5.0831
20980	4.4793
20981	3.3368
20982	6.1594
20983	3.1313
20984	3.1471
20985	3.5258
20986	6.4864
20987	6.18
20988	0.76847
20989	0.29744
20990	0.18301
20991	0.46482
20992	3.4033
20993	3.7149
20994	0.46174
20995	1.141
20996	0.42264
20997	0.28182
20998	0.12967
20999	0.69641
21000	0.69508
21001	6.3068
21002	2.8238
21003	2.6117
21004	1.8528
21005	2.3838
21006	1.434
21007	9.0518
21008	5.0072
21009	6.0942
21010	3.9308
21011	3.694
21012	5.0196
21013	5.4925
21014	7.1393
21015	5.6881
21016	4.0235
21017	2.0405
21018	6.1387
21019	6.3994e-002
21020	4.4481
21021	6.337
21022	0.93711
21023	5.8498
21024	6.827
21025	4.6187
21026	4.1754
21027	6.6529
21028	6.8486
21029	6.9929
21030	3.7584
21031	6.6804
21032	7.2212
21033	7.1259
21034	2.6882
21035	7.0026
21036	5.5326
21037	3.3772
21038	3.2863
21039	3.2853
21040	2.8865
21041	3.8723
21042	3.4203
21043	2.834
21044	2.8188
21045	0.48539
21046	2.8296
21047	2.8242
21048	2.3776
21049	2.8475
21050	4.2768
21051	2.9259
21052	2.5621
21053	2.88
21054	2.8869
21055	3.7444
21056	0.66017
21057	4.7861
21058	0.40595
21059	5.9375e-002
21060	0.56829
21061	6.3674
21062	0.35932
21063	7.5052
21064	9.399
21065	0.26971
21066	5.1339
21067	6.3475
21068	4.9492
21069	4.961
21070	5.7802
21071	5.0023
21072	4.2828
21073	3.3446
21074	5.1917
21075	2.7741
21076	3.3452
21077	4.4677
21078	3.3262
21079	2.1674
21080	4.5686
21081	4.6664
21082	4.6882
21083	3.0177
21084	2.9663
21085	4.4014
21086	4.8261
21087	4.5024
21088	4.274
21089	4.8874
21090	5.4734
21091	4.3296
21092	5.0484
21093	3.5371
21094	1.8022
21095	5.2505
21096	2.498
21097	2.5078
21098	4.6191
21099	2.4264
21100	4.007
21101	2.5534
21102	2.3105
21103	4.1005
21104	6.1712
21105	2.6503
21106	3.5471
21107	5.1799
21108	2.6859
21109	4.4754
21110	5.294
21111	4.5918
21112	4.466
21113	4.938
21114	4.2659
21115	4.4386
21116	4.4255
21117	4.6735
21118	3.8689
21119	3.9937
21120	4.8083
21121	5.1686
21122	2.7507
21123	4.3352
21124	3.7191
21125	2.4826
21126	2.5815
21127	2.8168
21128	4.8326
21129	3.8086
21130	4.5137
21131	2.7204
21132	4.3046
21133	4.2975
21134	4.7842
21135	4.7102
21136	4.7324
21137	6.3804
21138	4.8269
21139	6.4906
21140	2.0692
21141	4.7222
21142	4.6103
21143	2.9429
21144	3.0341
21145	3.3902
21146	2.6367
21147	4.3427
21148	2.6741
21149	2.6335
21150	5.1963
21151	4.0672
21152	2.7262
21153	2.946
21154	2.6579
21155	2.0762
21156	5.2042
21157	4.3689
21158	3.7779
21159	3.6404
21160	5.6989
21161	4.632
21162	4.3994
21163	4.6314
21164	3.6102
21165	5.5311
21166	5.1334
21167	5.3829
21168	6.7699
21169	3.2955
21170	2.6447
21171	2.8244
21172	3.0525
21173	2.5794
21174	0.13957
21175	3.8512
21176	0.14997
21177	0.22916
21178	6.5888
21179	0.42972
21180	3.6318
21181	2.7292
21182	2.0585
21183	9.5429
21184	6.4329
21185	8.9996
21186	7.1816
21187	0.13159
21188	0.61317
21189	6.9463
21190	7.696
21191	10.213
21192	7.1854
21193	20.943
21194	4.0905
21195	6.7774
21196	6.6164
21197	4.0012
21198	3.9071
21199	4.6084
21200	4.1346
21201	2.4507
21202	2.4918
21203	4.0024
21204	6.2611
21205	4.8529
21206	3.7454
21207	3.9011
21208	4.3671
21209	2.6031
21210	3.8
21211	2.7182
21212	4.1219
21213	4.7362
21214	5.152
21215	4.9523
21216	5.0534
21217	4.8366
21218	4.8382
21219	4.7712
21220	4.7364
21221	4.0248
21222	3.9009
21223	0.27206
21224	0.27053
21225	4.3286
21226	4.2077
21227	3.1353
21228	6.482
21229	6.5944
21230	5.0937
21231	2.7561
21232	6.6858
21233	6.2779
21234	6.4164
21235	5.1982e-002
21236	6.876
21237	12.549
21238	4.3169
21239	5.0457
21240	10.189
21241	3.9545
21242	4.6936
21243	2.4816
21244	11.568
21245	3.2409
21246	7.4489
21247	4.2735
21248	1.806
21249	5.6158
21250	6.8059
21251	5.5623
21252	6.6067
21253	6.2935
21254	3.445
21255	7.6529
21256	6.4639
21257	7.7902
21258	5.8295
21259	3.6096
21260	6.3031
21261	3.7028
21262	10.837
21263	2.9217
21264	14.027
21265	3.9379
21266	2.6958
21267	4.2934
21268	4.3717
21269	4.5797
21270	2.9606
21271	2.3794
21272	9.0635
21273	4.188
21274	7.6978
21275	7.1914
21276	5.2396
21277	4.1903
21278	2.0271
21279	4.0052
21280	0.80357
21281	2.8548
21282	4.1273
21283	6.7033
21284	2.9916
21285	0.81699
21286	1.9446
21287	2.5078
21288	3.1444
21289	0.80909
21290	2.3152
21291	0.68973
21292	6.1132
21293	0.21277
21294	16.747
21295	2.6089
21296	5.1476
21297	2.2419e-002
21298	4.3818
21299	3.7838
21300	5.6852
21301	4.3866
21302	4.6127
21303	3.148
21304	4.7364
21305	2.426
21306	3.8729
21307	2.6942
21308	3.4233
21309	4.2209
21310	3.2937
21311	3.6522
21312	1.0695
21313	0.96208
21314	2.6869
21315	3.1049
21316	2.7713
21317	5.7196
21318	4.6651
21319	6.7459
21320	7.1867
21321	5.6336
21322	3.0715
21323	2.7406
21324	4.3161
21325	3.5274
21326	0.28624
21327	1.4101
21328	2.9834
21329	6.0499
21330	3.1058
21331	2.3154
21332	4.8473
21333	2.6819
21334	2.7057
21335	2.6877
21336	6.058
21337	2.4356
21338	4.2157
21339	4.6842
21340	3.0044
21341	7.1788
21342	4.6196
21343	4.6136
21344	0.21828
21345	0.7734
21346	6.3677
21347	7.4847e-002
21348	5.7383
21349	6.3188
21350	0.47097
21351	2.9267
21352	0.27718
21353	0.74519
21354	7.0323
21355	0.32611
21356	7.0178
21357	0.77019
21358	4.08e-002
21359	2.9777
21360	2.6586
21361	10.841
21362	3.7948
21363	4.2922
21364	6.753
21365	2.7893
21366	6.9012
21367	4.4323
21368	1.7456
21369	2.354e-002
21370	4.0382
21371	3.6351
21372	0.26801
21373	4.3834
21374	6.7962
21375	0.7955
21376	6.8453
21377	3.5669
21378	5.4151
21379	6.6957
21380	5.5085
21381	2.9047
21382	7.4183
21383	2.9946
21384	3.0991
21385	6.8809
21386	2.5127
21387	7.1358
21388	9.1146
21389	2.848
21390	2.888
21391	7.0103
21392	5.5563
21393	6.4554
21394	5.8552
21395	6.5071
21396	6.0138
21397	6.3325
21398	7.1397
21399	6.1603
21400	5.5053
21401	4.5102
21402	3.1147
21403	4.4381
21404	5.3589
21405	6.4643
21406	5.1779
21407	6.5938
21408	3.2641
21409	3.142
21410	5.8933
21411	2.6957
21412	5.5456
21413	3.242
21414	2.5482
21415	2.6935
21416	2.6948
21417	2.6821
21418	3.4518
21419	2.8823
21420	3.1298
21421	4.5606
21422	2.1416
21423	2.9169
21424	4.1562
21425	2.7285
21426	5.3811
21427	7.9821
21428	2.6997
21429	4.8195
21430	2.789
21431	4.6237
21432	4.9185
21433	4.7323
21434	2.7702
21435	2.7293
21436	7.0937
21437	5.031
21438	4.5713
21439	4.2371
21440	4.2605
21441	4.441
21442	4.5437
21443	4.3104
21444	4.8391
21445	3.8446
21446	4.5402
21447	4.934
21448	5.8276
21449	5.4826
21450	4.1979
21451	4.1068
21452	4.7801
21453	2.7406
21454	4.3938
21455	2.5686
21456	4.6305
21457	4.441
21458	4.847
21459	7.9774
21460	2.4224
21461	2.9895
21462	2.6869
21463	2.2255
21464	2.6402
21465	3.0591
21466	4.1073
21467	3.9623
21468	4.286
21469	4.1647
21470	4.1254
21471	2.8751
21472	2.9248
21473	3.8508
21474	2.3265
21475	2.2854
21476	2.8379
21477	4.5512
21478	4.5516
21479	4.48
21480	4.6785
21481	4.763
21482	4.8279
21483	4.6905
21484	5.0059
21485	4.7661
21486	4.7689
21487	4.5884
21488	6.6088
21489	6.4325
21490	4.7957
21491	6.4428
21492	6.3927
21493	6.7717
21494	6.8504
21495	0.27819
21496	0.14999
21497	0.56663
21498	2.4192
21499	1.0316
21500	7.7564
21501	0.53779
21502	6.3555
21503	0.51495
21504	2.6834
21505	2.6421
21506	2.6979
21507	2.9152
21508	2.8618
21509	2.6834
21510	0.44347
21511	12.22
21512	3.058e-002
21513	0.24631
21514	0.30216
21515	12.349
21516	3.8201
21517	4.859
21518	2.6662
21519	3.0708
21520	3.4347
21521	3.339
21522	3.2459
21523	3.7861
21524	2.9069
21525	2.2076
21526	3.7189
21527	4.7823
21528	5.1914
21529	7.4456
21530	0.18582
21531	4.669
21532	7.1944
21533	6.1445
21534	2.0254
21535	3.1862e-002
21536	0.46314
21537	14.788
21538	7.1211
21539	4.153
21540	7.9725
21541	4.5199
21542	3.5638
21543	3.2244
21544	4.4106
21545	2.8918
21546	4.4614
21547	4.1127
21548	4.643
21549	6.4336
21550	2.9002
21551	3.758
21552	6.4022
21553	4.9316
21554	0.26558
21555	9.0936
21556	0.22142
21557	7.9912
21558	6.0037
21559	0.13018
21560	14.686
21561	15.491
21562	9.1159
21563	2.977
21564	3.7036
21565	9.372
21566	21.135
21567	17.24
21568	12.302
21569	2.0798e-002
21570	7.3645
21571	7.0369
21572	4.4074
21573	4.3104
21574	1.8008
21575	4.2955
21576	3.5042
21577	4.2574
21578	5.1886
21579	5.2458
21580	3.0329
21581	6.9752
21582	4.0857
21583	5.1719
21584	3.9024
21585	4.072
21586	2.9923
21587	2.9301
21588	6.3303
21589	2.7732
21590	4.0167
21591	4.0355
21592	5.5722
21593	4.9341
21594	4.1448
21595	4.9208
21596	4.9764
21597	5.509
21598	3.3189
21599	3.0553
21600	3.9281
21601	3.4152
21602	4.527
21603	2.9386
21604	2.7378
21605	3.504
21606	4.8054
21607	5.2255
21608	6.2138
21609	2.7073
21610	6.4714
21611	4.6761
21612	5.1079
21613	5.873
21614	7.4932
21615	0.58534
21616	1.7892
21617	5.7081
21618	4.4066
21619	3.1593
21620	4.402
21621	4.8508
21622	3.7286
21623	2.5732
21624	2.8783
21625	3.298
21626	3.0904
21627	4.8131
21628	4.0136
21629	9.9647
21630	0.48309
21631	10.747
21632	3.8515
21633	0.80672
21634	0.61523
21635	2.2326
21636	5.7051
21637	1.4556
21638	1.7338
21639	5.9931
21640	1.2788
21641	2.5951
21642	7.0989
21643	3.3079
21644	0.2855
21645	7.7266
21646	0.79055
21647	0.75863
21648	0.80811
21649	0.80418
21650	3.123
21651	0.93122
21652	0.71801
21653	6.4045
21654	7.2974
21655	2.7258
21656	3.9973
21657	3.6271
21658	3.2084
21659	1.752
21660	3.1243
21661	2.9238
21662	1.9742
21663	1.5418
21664	4.4338
21665	0.84874
21666	4.8664
21667	4.9321
21668	5.1332
21669	2.7191
21670	4.1106
21671	0.29512
21672	3.0762
21673	3.923
21674	0.80445
21675	0.46892
21676	0.41807
21677	1.3067
21678	0.54302
21679	0.33057
21680	2.4727
21681	2.2293
21682	0.78819
21683	0.41706
21684	0.26313
21685	0.34792
21686	0.27782
21687	0.77404
21688	0.28093
21689	3.6685
21690	6.791
21691	0.47304
21692	4.7091
21693	5.2566e-002
21694	8.5996e-002
21695	0.44393
21696	0.65625
21697	3.7537
21698	4.5665
21699	5.2725
21700	4.4737
21701	5.2155
21702	4.6866
21703	4.6512
21704	4.2054
21705	4.7447
21706	3.9019
21707	4.9562
21708	3.302
21709	4.7474
21710	3.9158
21711	3.3731
21712	4.7767
21713	4.8718
21714	3.9736
21715	4.1434
21716	4.302
21717	4.6537
21718	4.3695
21719	4.6117
21720	5.6102
21721	5.4419
21722	4.7744
21723	2.4473
21724	2.2294
21725	2.6826
21726	4.604
21727	2.6088
21728	4.6097
21729	4.5722
21730	2.6985
21731	4.2431
21732	6.768
21733	4.6944
21734	2.3382
21735	2.7508
21736	1.9585
21737	2.5179
21738	2.6968
21739	3.2342
21740	2.8605
21741	0.20323
21742	3.0004
21743	5.8842
21744	4.5378
21745	5.8313
21746	5.1941
21747	5.3983
21748	6.3494
21749	4.5348
21750	4.2226
21751	4.7196
21752	5.0955
21753	5.2258
21754	5.2623
21755	5.1385
21756	5.1374
21757	3.4396
21758	11.866
21759	3.7957
21760	3.1207
21761	3.8649
21762	2.8937
21763	3.3467
21764	2.7079
21765	2.2964
21766	2.6926
21767	2.4988
21768	2.595
21769	5.5587
21770	2.7349
21771	2.6712
21772	2.786
21773	2.2757
21774	2.6069
21775	2.6868
21776	6.2591
21777	6.241
21778	3.1459
21779	2.5948
21780	2.4197
21781	4.0479
21782	1.0588
21783	0.13218
21784	4.3803
21785	3.4206
21786	6.7469
21787	7.4742
21788	7.3417
21789	6.4555
21790	4.8596
21791	4.0978
21792	2.9326
21793	5.6425
21794	5.4239
21795	4.4055
21796	4.1434
21797	4.2605
21798	6.7008
21799	5.1883
21800	2.8625
21801	2.8488
21802	2.7455
21803	5.8389
21804	2.8909
21805	2.1156
21806	4.7827
21807	18.341
21808	5.5836
21809	2.6209
21810	4.0237
21811	3.4833
21812	2.7702
21813	4.4595
21814	3.7753
21815	7.9859
21816	10.081
21817	0.26637
21818	0.25498
21819	5.918
21820	7.6932
21821	7.2542
21822	7.0616
21823	7.4891
21824	4.5879
21825	4.3684
21826	6.469
21827	8.0869
21828	0.28003
21829	6.0386
21830	0.58382
21831	0.49132
21832	0.67167
21833	1.6133
21834	0.33869
21835	0.61109
21836	6.8546
21837	4.1275
21838	4.394
21839	4.3213
21840	6.0402
21841	2.0801
21842	2.8599
21843	5.9474
21844	5.7781
21845	3.0095
21846	1.4194
21847	2.7053
21848	3.0851
21849	3.3292
21850	7.0979
21851	2.5155
21852	3.436
21853	6.0879
21854	3.0157e-002
21855	3.3326
21856	3.4467
21857	3.3046e-002
21858	2.9237
21859	3.9616
21860	7.5498
21861	5.185e-002
21862	8.1762
21863	7.8486
21864	0.3283
21865	0.21304
21866	9.2483
21867	0.20162
21868	10.119
21869	6.5408
21870	4.384
21871	8.4552
21872	5.8106
21873	3.3878
21874	4.2687
21875	5.6533
21876	4.4288
21877	4.2981
21878	6.4438
21879	4.1737
21880	6.5183
21881	4.1195
21882	2.8092
21883	5.8328
21884	5.6039e-002
21885	0.52775
21886	0.49432
21887	0.3131
21888	0.44125
21889	2.9714
21890	0.75378
21891	3.2924
21892	2.2126
21893	2.2949
21894	4.2181
21895	0.95111
21896	5.3263e-002
21897	3.3122
21898	4.4113
21899	7.3009
21900	3.7183
21901	2.1542
21902	3.3171
21903	2.6556
21904	3.2117
21905	6.2745
21906	0.93098
21907	4.921
21908	1.2741
21909	0.54144
21910	2.7006
21911	7.4833
21912	6.7111
21913	1.7396
21914	4.6347
21915	2.9138
21916	4.0899
21917	2.0026
21918	2.936
21919	3.8137
21920	4.1793
21921	3.7846
21922	3.7887
21923	1.1293
21924	1.1138
21925	2.0226
21926	1.8584
21927	3.1694
21928	4.9716
21929	4.1945
21930	3.8309
21931	5.3384
21932	5.4812
21933	2.9292
21934	3.3061
21935	5.8474
21936	2.69
21937	2.8019
21938	4.1226
21939	3.0062
21940	3.3306
21941	4.9245
21942	2.4806
21943	2.7907
21944	2.6792
21945	2.587
21946	2.1847
21947	2.8908
21948	2.9563
21949	5.7071
21950	0.54335
21951	0.32743
21952	5.5861
21953	5.2055
21954	4.7319
21955	4.508
21956	0.26756
21957	0.20757
21958	18.758
21959	4.9252
21960	5.5957
21961	6.0058
21962	2.8725
21963	3.0705e-002
21964	2.7491
21965	2.8144e-002
21966	3.0797
21967	2.9065
21968	2.9145
21969	2.6769
21970	2.8343
21971	2.7206
21972	2.8073
21973	4.4889
21974	3.7133
21975	3.0352
21976	2.481
21977	5.0497
21978	5.9242
21979	5.2669
21980	6.9279
21981	6.3381
21982	6.638
21983	6.6857
21984	14.8
21985	3.4089
21986	3.8352
21987	3.3251
21988	3.7851
21989	2.825
21990	3.5706
21991	5.0611
21992	4.923
21993	6.7012
21994	7.2285
21995	6.0086
21996	6.7815
21997	6.7954
21998	3.0237
21999	0.24499
22000	0.46423
22001	0.26921
22002	2.181
22003	2.8155
22004	2.1673
22005	5.4548
22006	4.7146
22007	2.884
22008	2.7911
22009	2.8576
22010	2.7286
22011	2.4183
22012	2.7106
22013	3.0767
22014	2.5757
22015	2.6499
22016	3.058
22017	2.5858
22018	2.8873
22019	2.5543
22020	2.6969
22021	2.9647
22022	2.6457
22023	3.8717
22024	4.604
22025	3.8109
22026	5.0411
22027	5.2555
22028	6.9936
22029	6.8215
22030	4.6251
22031	5.4717
22032	4.3845
22033	1.9767
22034	5.0996
22035	5.3179
22036	5.3721
22037	5.7296
22038	7.1094
22039	2.5507
22040	2.1664
22041	2.3993
22042	2.9291
22043	2.5812
22044	2.6902
22045	2.7984
22046	2.6217
22047	4.9789
22048	4.3674
22049	4.5605
22050	5.4586
22051	4.0247
22052	4.762
22053	3.691
22054	4.278
22055	4.4177
22056	4.103
22057	5.4283
22058	5.046
22059	6.3525
22060	4.5772
22061	4.4471
22062	4.3123
22063	3.8473
22064	6.2202
22065	6.0322
22066	4.9338
22067	4.6073
22068	4.6105
22069	4.9738
22070	4.6924
22071	4.0758
22072	4.3696
22073	4.749
22074	4.8401
22075	4.7072
22076	5.0234
22077	7.2949
22078	6.8042
22079	6.8793
22080	7.5711
22081	8.1706
22082	6.812
22083	7.1401
22084	7.7173
22085	7.015
22086	10.097
22087	21.135
22088	11.175
22089	17.24
22090	21.033
22091	14.681
22092	5.645
22093	7.1183
22094	3.0161
22095	1.7897
22096	8.501
22097	4.2153
22098	10.144
22099	6.3121
22100	7.8074
22101	4.1896
22102	9.3325
22103	6.6171
22104	6.3211
22105	6.4596
22106	1.0405
22107	0.62058
22108	0.2115
22109	0.80072
22110	0.61526
22111	5.034
22112	2.1974
22113	4.7229
22114	4.4747
22115	6.0787
22116	4.467
22117	0.31844
22118	0.3601
22119	0.51486
22120	0.40365
22121	6.4513
22122	3.6915
22123	0.58896
22124	0.64175
22125	0.51149
22126	3.0113
22127	9.3306
22128	6.5022
22129	3.7142
22130	4.6171
22131	6.6716
22132	6.1904
22133	3.7803
22134	4.9271
22135	5.7045
22136	2.1266
22137	2.9529
22138	2.7816
22139	3.0881
22140	2.6028
22141	2.7819
22142	2.6366
22143	2.7905
22144	2.8018
22145	2.7021
22146	2.9447
22147	2.7395
22148	2.6414
22149	4.6723
22150	3.1641
22151	2.6368
22152	0.22172
22153	0.18115
22154	2.7082
22155	7.1762
22156	1.4271
22157	2.2406
22158	5.9799
22159	3.2605
22160	4.3817
22161	4.849
22162	6.2116
22163	5.6
22164	6.094
22165	3.0142
22166	6.5663
22167	0.30562
22168	0.34094
22169	0.52816
22170	0.77171
22171	0.5934
22172	0.80925
22173	0.80368
22174	0.56821
22175	0.43
22176	2.1647
22177	2.1423
22178	5.0668
22179	0.7331
22180	0.89679
22181	4.6303
22182	3.0421
22183	3.4337
22184	6.4073
22185	5.0959
22186	4.1587
22187	1.3569
22188	2.4807
22189	6.7585
22190	2.1417
22191	0.21943
22192	6.9042
22193	6.6061
22194	0.15149
22195	0.12971
22196	3.3724
22197	4.9453
22198	4.6327
22199	4.169
22200	4.6087
22201	6.739
22202	4.1721
22203	4.8956
22204	5.0168
22205	5.6058
22206	4.4338
22207	4.7502
22208	5.1043
22209	5.4327
22210	4.9949
22211	5.8161
22212	4.4253
22213	4.3779
22214	2.6272
22215	3.9048
22216	2.7633
22217	2.3017
22218	3.0736
22219	2.659
22220	2.8666
22221	3.1267
22222	3.0935
22223	2.8977
22224	0.21858
22225	0.13091
22226	0.24786
22227	7.454
22228	2.7987
22229	3.0984
22230	2.8242
22231	2.789
22232	2.917
22233	3.2042
22234	2.9577
22235	2.8348
22236	2.8479
22237	2.6449
22238	2.6179
22239	4.0855
22240	2.2259
22241	1.7337
22242	2.522
22243	7.448
22244	7.0582
22245	0.57389
22246	0.5775
22247	3.0084
22248	2.8968
22249	3.209
22250	3.0314
22251	1.008
22252	1.6197
22253	1.6783
22254	3.9885
22255	3.4985
22256	3.5439
22257	0.43758
22258	0.31719
22259	0.39025
22260	0.35435
22261	0.48391
22262	15.601
22263	0.21395
22264	5.1846
22265	4.8875
22266	4.8917
22267	5.6426
22268	5.2843
22269	4.7027
22270	4.6197
22271	2.548
22272	2.7314
22273	3.5257
22274	3.6293
22275	4.1345
22276	4.3933
22277	4.7157
22278	4.9979
22279	4.6755
22280	4.7325
22281	4.6343
22282	5.6975
22283	4.5787
22284	2.7528
22285	2.8438
22286	2.7976
22287	2.5852
22288	2.5983
22289	2.7185
22290	2.7864
22291	3.3606
22292	3.203
22293	2.8491
22294	1.9941
22295	2.7571
22296	1.8818
22297	2.6243
22298	3.2877
22299	3.994
22300	5.2158
22301	4.8671
22302	3.5262
22303	2.7595
22304	3.7831
22305	2.4727
22306	2.5723
22307	1.9155
22308	4.1315
22309	3.7922
22310	4.5399
22311	3.7357
22312	3.3435
22313	3.5759
22314	4.1116
22315	6.1738
22316	6.1231
22317	5.0872
22318	5.8962
22319	5.1485
22320	4.9805
22321	5.1013
22322	5.2802
22323	6.535
22324	3.6494
22325	6.9941
22326	6.7312
22327	2.7339
22328	3.0015
22329	3.1233
22330	2.9666
22331	2.8251
22332	2.9393
22333	2.7004
22334	10.437
22335	4.4272
22336	4.367
22337	7.5489
22338	7.2656
22339	7.0346
22340	6.8525
22341	6.9964
22342	12.807
22343	8.3379
22344	8.2832
22345	9.5942
22346	10.081
22347	10.41
22348	3.3663
22349	6.8681
22350	4.154
22351	2.7243
22352	2.0721
22353	3.268
22354	4.6667
22355	7.3515
22356	9.7866
22357	4.2418
22358	4.2896
22359	4.4033
22360	6.876
22361	7.578
22362	8.3283
22363	5.5555
22364	3.954
22365	0.18601
22366	2.6202
22367	4.7086
22368	6.7478
22369	5.4079
22370	6.3953
22371	5.266
22372	1.2843
22373	2.961
22374	4.2242
22375	3.6892
22376	3.8391
22377	3.3443
22378	2.797
22379	3.569
22380	4.7429
22381	4.2869
22382	4.249
22383	5.1488
22384	3.866
22385	0.90851
22386	0.79902
22387	2.5873
22388	2.7222
22389	4.2795
22390	2.4464
22391	2.6579
22392	2.7046
22393	1.8453
22394	2.5774
22395	2.1334
22396	3.11
22397	1.9625
22398	3.0286
22399	2.8885
22400	2.6942
22401	4.4537
22402	3.1505
22403	4.9611
22404	3.4391
22405	4.3189
22406	5.9705
22407	0.37712
22408	0.41448
22409	3.7216
22410	6.033e-002
22411	5.1572e-002
22412	1.9203
22413	0.26765
22414	0.40266
22415	0.2073
22416	0.81154
22417	0.80676
22418	0.8149
22419	0.80288
22420	2.1553e-002
22421	3.3638
22422	6.8498
22423	3.0592
22424	3.7099
22425	2.8147
22426	5.8519
22427	4.2919
22428	2.319
22429	3.5064
22430	0.68427
22431	6.6784
22432	0.61817
22433	2.3714
22434	1.9811
22435	3.8351
22436	6.9123
22437	5.5532
22438	6.0643
22439	5.7522
22440	6.1408
22441	6.1529
22442	3.3559
22443	3.085
22444	3.1899
22445	3.2302
22446	6.7545
22447	3.2792
22448	2.5867
22449	2.6044
22450	2.634
22451	2.6373
22452	4.6284
22453	5.0437
22454	4.3735
22455	4.5867
22456	3.8766
22457	3.7602
22458	4.327
22459	4.6744
22460	5.0911
22461	5.2896
22462	4.6092
22463	4.8638
22464	2.2628
22465	2.1282
22466	5.9512
22467	5.096
22468	5.2738
22469	5.8173
22470	5.5487
22471	2.9401
22472	2.8877
22473	2.8867
22474	2.8381
22475	2.6288
22476	2.737
22477	2.4415
22478	2.6126
22479	2.7435
22480	2.7021
22481	2.6071
22482	2.6399
22483	4.6043
22484	5.2784
22485	5.1985
22486	5.1542
22487	3.9793
22488	4.5561
22489	4.7904
22490	4.6204
22491	4.8612
22492	4.7654
22493	4.4178
22494	1.8762
22495	2.6875
22496	2.7316
22497	4.5565
22498	1.636
22499	2.0527
22500	2.0271
22501	3.4477
22502	6.6048
22503	5.8952
22504	5.4806
22505	4.7399
22506	4.5059
22507	2.593
22508	2.5341
22509	3.0073
22510	3.2013
22511	2.9178
22512	2.8567
22513	4.4175
22514	6.0392
22515	5.5582
22516	5.5765
22517	5.9253
22518	5.6886
22519	7.4162
22520	3.0777
22521	2.9777
22522	0.37445
22523	3.2911
22524	3.2938
22525	3.2948
22526	3.2919
22527	2.9391
22528	4.0086
22529	3.9928
22530	2.9092
22531	5.9111
22532	5.8271
22533	0.44602
22534	1.6757
22535	0.32643
22536	0.2846
22537	2.8833
22538	2.7806
22539	5.6863
22540	2.9539
22541	2.9815
22542	2.6718
22543	2.9214
22544	2.4039
22545	2.6323
22546	3.067
22547	2.9576
22548	2.7708
22549	2.8228
22550	3.0236
22551	2.9598
22552	2.8304
22553	2.6971
22554	2.9314
22555	0.1915
22556	3.0371
22557	3.3966
22558	2.6522
22559	3.9009
22560	5.1324
22561	3.813
22562	6.8665
22563	6.4427
22564	5.2966
22565	5.8965
22566	6.9606
22567	7.0594
22568	4.6776
22569	7.7502
22570	7.7213
22571	5.8478
22572	1.0489
22573	7.6754
22574	17.294
22575	6.5266
22576	7.866
22577	8.0704
22578	8.1785
22579	6.8478
22580	6.8032
22581	9.5698
22582	10.218
22583	6.7856
22584	12.878
22585	7.1183
22586	5.6459
22587	4.4935
22588	4.4285
22589	6.8632
22590	6.3698
22591	4.3402
22592	3.8452
22593	6.3896
22594	6.4482
22595	3.5034
22596	4.3971
22597	3.8635
22598	4.3492
22599	4.0332
22600	6.6898
22601	7.0042
22602	10.084
22603	7.7616
22604	7.0367
22605	5.689
22606	14.893
22607	2.4756
22608	2.707
22609	2.7094
22610	2.9292
22611	6.3355
22612	0.71728
22613	3.787
22614	3.2064
22615	6.226
22616	1.1352
22617	3.7359
22618	3.8631
22619	4.118
22620	3.926
22621	3.6193
22622	3.8126
22623	2.9448
22624	4.1891
22625	3.3243
22626	4.9946
22627	3.8457
22628	1.1769
22629	5.2584
22630	0.1697
22631	0.30832
22632	0.68403
22633	0.64588
22634	6.937
22635	0.17373
22636	0.20601
22637	3.26
22638	2.7442
22639	7.3701
22640	2.6698
22641	0.68482
22642	5.7464
22643	1.2446
22644	0.33767
22645	0.91392
22646	2.7225
22647	2.033
22648	0.20832
22649	0.80748
22650	0.18622
22651	0.34803
22652	0.80277
22653	0.19841
22654	0.15072
22655	4.0272
22656	0.36675
22657	0.22087
22658	0.15805
22659	0.33109
22660	0.27867
22661	0.71657
22662	0.74116
22663	0.44943
22664	4.7504e-002
22665	5.1264e-002
22666	0.64789
22667	4.003
22668	4.6069
22669	3.8351
22670	4.405
22671	4.0566
22672	4.6048
22673	4.1804
22674	4.9703
22675	4.6855
22676	4.4146
22677	4.5973
22678	4.6599
22679	2.6782
22680	2.1123
22681	3.923
22682	4.2635
22683	4.2849
22684	3.7248
22685	2.8912
22686	2.4255
22687	2.3533
22688	3.0714
22689	2.8132
22690	2.8346
22691	2.8452
22692	2.691
22693	2.612
22694	3.3977
22695	2.0296
22696	7.099
22697	3.2257
22698	5.9445
22699	5.6026
22700	5.2725
22701	5.1269
22702	4.5887
22703	4.4226
22704	4.2957
22705	4.2644
22706	4.8698
22707	3.5341
22708	4.0072
22709	4.0675
22710	3.8115
22711	2.7788
22712	2.8572
22713	2.8039
22714	4.0342
22715	2.5411
22716	3.682
22717	2.5258
22718	2.1697
22719	1.7736
22720	2.6878
22721	2.212
22722	2.5332
22723	3.1872
22724	2.0944
22725	3.6764
22726	3.0062
22727	2.8607
22728	3.4293
22729	2.6252
22730	3.0803
22731	3.2451
22732	2.6422
22733	2.6242
22734	2.9806
22735	2.3701
22736	2.5843
22737	2.0793
22738	3.2041
22739	2.6197
22740	2.7194
22741	2.9523
22742	7.4681
22743	2.816
22744	6.6383
22745	7.4174
22746	7.2453
22747	7.9882
22748	9.4274
22749	0.21645
22750	5.9074e-002
22751	5.3558
22752	4.4705
22753	5.0854
22754	7.302
22755	6.7773
22756	3.2656
22757	3.4123
22758	4.2749
22759	3.4664
22760	4.996
22761	3.118
22762	3.3442
22763	2.4318
22764	2.7038
22765	2.6284
22766	2.8038
22767	3.0449
22768	2.5186
22769	2.9543
22770	3.0664
22771	2.8532
22772	2.955
22773	3.0817
22774	2.7673
22775	2.667
22776	3.9071
22777	4.2541
22778	9.2783
22779	0.13304
22780	0.1298
22781	0.15036
22782	4.4653
22783	3.9733
22784	3.9875
22785	6.4384
22786	8.3385
22787	0.49567
22788	0.46585
22789	0.53972
22790	7.4523
22791	0.24712
22792	0.30311
22793	6.9236
22794	6.8264
22795	6.1682
22796	6.7688
22797	7.3858
22798	7.2537
22799	6.9189
22800	6.8159
22801	4.9617
22802	7.3618
22803	15.302
22804	10.233
22805	9.3975
22806	17.302
22807	4.1328
22808	3.3794
22809	4.2933
22810	10.182
22811	2.2478
22812	2.0352
22813	1.4415
22814	1.0143
22815	1.6053
22816	1.909
22817	1.8507
22818	1.7614
22819	1.9387
22820	1.3207
22821	1.6627
22822	1.1773
22823	1.8829
22824	0.94659
22825	0.99541
22826	0.80077
22827	1.0068
22828	1.0847
22829	0.95467
22830	1.0055
22831	1.0462
22832	0.92808
22833	1.0125
22834	0.87846
22835	0.8947
22836	0.87063
22837	0.91614
22838	0.44704
22839	0.48001
22840	0.53285
22841	0.56408
22842	0.68375
22843	0.64605
22844	0.72515
22845	6.1977
22846	6.8839
22847	7.0795
22848	7.0462
22849	7.621
22850	4.9428
22851	5.6307
22852	6.166
22853	6.5556
22854	6.7616
22855	6.2821
22856	5.8044
22857	6.5257
22858	6.8555
22859	2.678
22860	2.4092
22861	2.9636
22862	2.5836
22863	3.0414
22864	2.2369
22865	3.1286
22866	5.0087e-002
22867	3.3679e-002
22868	5.7061e-002
22869	6.0512e-002
22870	4.8675e-002
22871	4.7668
22872	5.0117
22873	2.5768
22874	3.3224
22875	2.7148
22876	1.358
22877	1.206
22878	1.6278
22879	0.97571
22880	0.61956
22881	0.73738
22882	0.39181
22883	0.571
22884	0.57372
22885	0.64986
22886	0.78999
22887	0.39089
22888	0.54971
22889	0.69572
22890	2.296
22891	0.40518
22892	2.4006
22893	2.2194
22894	4.6334
22895	4.274
22896	3.8433
22897	4.3576
22898	4.2735
22899	4.1642
22900	5.1586
22901	5.2848
22902	4.6553
22903	5.1042
22904	4.8016
22905	1.4472
22906	1.3705
22907	1.5106
22908	1.349
22909	1.3998
22910	1.3059
22911	1.4871
22912	1.2938
22913	1.2639
22914	2.9178
22915	2.8788
22916	2.6119
22917	3.0189
22918	2.8166
22919	2.4597
22920	3.0129
22921	2.9722
22922	3.1927
22923	1.4993
22924	3.077
22925	3.2162
22926	2.3865
22927	1.8207
22928	1.8335
22929	1.7313
22930	1.7786
22931	2.1506
22932	1.8379
22933	2.2385
22934	2.2966
22935	2.0203
22936	2.0203
22937	0.74377
22938	0.89543
22939	0.94029
22940	1.1169
22941	0.6081
22942	0.71136
22943	0.77615
22944	0.77504
22945	0.93504
22946	2.467
22947	2.8157
22948	2.4773
22949	2.905
22950	2.2786
22951	1.0821
22952	1.1801
22953	1.1814
22954	0.96494
22955	0.9456
22956	0.77961
22957	0.69115
22958	0.55657
22959	2.8336
22960	3.0628
22961	2.8821
22962	3.2893
22963	1.2408
22964	0.82549
22965	1.1991
22966	0.69299
22967	1.8936
22968	2.3181
22969	2.5857
22970	0.95141
22971	2.0575
22972	2.1773
22973	1.395
22974	2.0171
22975	1.6948
22976	1.7353
22977	2.4222
22978	2.519
22979	1.8254
22980	1.6215
22981	1.3136
22982	2.7473
22983	2.0874
22984	2.3271
22985	1.7608
22986	1.3516
22987	1.3427
22988	1.2622
22989	1.5986
22990	1.3866
22991	1.9011
22992	1.2393
22993	1.5804
22994	1.4957
22995	1.4859
22996	2.7391
22997	2.9647
22998	2.7065
22999	0.66519
23000	0.42147
23001	0.99909
23002	1.6633
23003	0.98311
23004	0.99873
23005	0.93895
23006	0.74829
23007	0.94439
23008	0.77266
23009	0.87986
23010	0.75685
23011	0.77741
23012	0.83417
23013	0.89299
23014	0.77294
23015	2.6712
23016	1.4222
23017	1.6174
23018	3.0656
23019	2.745
23020	1.8096
23021	1.5121
23022	1.9761
23023	2.3151
23024	1.4339
23025	2.6001
23026	2.5491
23027	2.3122
23028	2.7279
23029	2.3262
23030	0.73644
23031	0.62526
23032	0.62366
23033	0.58105
23034	0.73777
23035	0.41409
23036	1.4759
23037	2.1208
23038	2.9037
23039	2.1739
23040	3.344
23041	2.4665
23042	3.8581
23043	4.0909
23044	3.1726
23045	2.1363
23046	2.1315
23047	2.4883
23048	2.4896
23049	1.1939
23050	1.3803
23051	1.5151
23052	1.4984
23053	1.0747
23054	1.0576
23055	1.0328
23056	3.5681
23057	4.3732
23058	4.1463
23059	4.0048
23060	4.1026
23061	4.2559
23062	4.3764
23063	3.9217
23064	0.95445
23065	0.9438
23066	0.83718
23067	1.6652
23068	1.6655
23069	1.5324
23070	1.2407
23071	1.8657
23072	1.3892
23073	1.0385
23074	2.7109
23075	5.1126
23076	5.0148
23077	5.032
23078	5.2102
23079	5.0651
23080	6.618
23081	6.4701
23082	5.7625
23083	6.8502
23084	0.43003
23085	0.50025
23086	0.36621
23087	0.40346
23088	0.55496
23089	0.52457
23090	0.66918
23091	0.71702
23092	0.53016
23093	2.4805
23094	2.2612
23095	2.8616
23096	3.2309
23097	2.969
23098	3.295
23099	3.5442
23100	3.685
23101	2.9462
23102	1.0366
23103	1.07
23104	1.0601
23105	1.9975
23106	2.7293
23107	2.8559
23108	2.1512
23109	2.423
23110	2.7178
23111	2.4264
23112	1.1346
23113	1.3527
23114	1.0468
23115	2.3233
23116	1.8366
23117	2.4677
23118	2.895
23119	2.7501
23120	4.1715
23121	5.7706
23122	4.5768
23123	3.7448
23124	5.3097
23125	4.4784
23126	4.8036
23127	3.7813
23128	2.5383
23129	0.62103
23130	1.3298
23131	2.7798
23132	3.0026
23133	0.7851
23134	0.69322
23135	0.58243
23136	0.61281
23137	0.64626
23138	0.38553
23139	0.41062
23140	0.5466
23141	0.61419
23142	2.6374
23143	2.8412
23144	2.893
23145	0.88149
23146	1.3488
23147	0.93117
23148	1.4176
23149	0.70754
23150	0.57976
23151	0.67232
23152	0.82374
23153	0.73928
23154	0.78195
23155	4.887
23156	3.9531
23157	5.392
23158	4.4325
23159	5.8457
23160	6.3995
23161	6.0878
23162	1.0207
23163	1.1167
23164	0.96248
23165	2.5716
23166	2.0239
23167	3.3455
23168	1.2571
23169	1.1511
23170	2.3099
23171	1.857
23172	2.2395
23173	3.2682
23174	1.7707
23175	2.0888
23176	2.2324
23177	2.1832
23178	1.7696
23179	1.4036
23180	1.3792
23181	1.2934
23182	1.2299
23183	1.2631
23184	1.0746
23185	0.83253
23186	0.65388
23187	0.71522
23188	0.67116
23189	0.67942
23190	0.60665
23191	0.64532
23192	3.6228
23193	3.132
23194	4.0005
23195	3.1917
23196	3.9483
23197	3.7476
23198	8.9495
23199	8.1387
23200	9.5389
23201	6.6252
23202	5.2833
23203	6.6952
23204	4.652
23205	6.4671
23206	2.4337
23207	6.128
23208	5.3062
23209	2.8161
23210	4.5821
23211	5.3271
23212	2.7139
23213	2.7856
23214	2.6687
23215	2.8077
23216	2.5243
23217	2.4109
23218	1.8449
23219	1.7512
23220	3.2653
23221	2.8396
23222	3.2631
23223	3.3646
23224	2.6936
23225	2.662
23226	2.9039
23227	2.6004
23228	2.6989
23229	3.3764
23230	2.9398
23231	4.9478
23232	6.0898
23233	3.9329
23234	5.951
23235	5.2691
23236	4.556
23237	4.8502
23238	5.4108
23239	6.384
23240	6.1535
23241	2.3562
23242	2.875
23243	3.119
23244	2.6405
23245	2.5814
23246	4.5849
23247	4.7321
23248	4.5272
23249	2.5775
23250	1.5722
23251	2.7548
23252	1.9949
23253	1.896
23254	3.4892
23255	3.1912
23256	4.3461
23257	3.3574
23258	6.8027
23259	5.688
23260	0.66257
23261	0.56965
23262	0.5972
23263	0.73179
23264	0.52306
23265	0.77744
23266	0.59803
23267	0.7059
23268	0.65942
23269	3.5687
23270	3.2153
23271	3.6169
23272	3.823
23273	4.2229
23274	1.7064
23275	3.0032
23276	2.1622
23277	1.9433
23278	2.7168
23279	3.2987
23280	0.26297
23281	0.25851
23282	0.22235
23283	1.5771
23284	1.6969
23285	1.5046
23286	1.73
23287	1.6302
23288	1.7669
23289	3.6973
23290	4.6257
23291	3.7929
23292	4.3484
23293	4.8617
23294	3.7879
23295	4.6694
23296	1.444
23297	1.272
23298	1.1454
23299	1.5275
23300	5.2059
23301	5.1655
23302	3.8693
23303	4.7075
23304	4.7009
23305	4.3652
23306	3.5217
23307	3.6677
23308	4.3847
23309	2.1807
23310	1.1819
23311	1.7208
23312	2.3288
23313	2.2151
23314	2.4569
23315	2.6552
23316	2.4285
23317	4.6865
23318	4.2903
23319	3.7811
23320	5.1292
23321	5.4047
23322	4.6958
23323	3.5356
23324	4.3989
23325	2.1004
23326	1.9071
23327	2.5688
23328	2.7364
23329	3.3423
23330	3.3398
23331	3.3332
23332	2.7555
23333	2.7556
23334	3.5604
23335	2.7173
23336	2.7379
23337	3.3344
23338	3.5611
23339	4.5703
23340	4.4897
23341	3.2585
23342	3.9148
23343	3.7249
23344	3.4773
23345	3.4772
23346	2.6179
23347	3.2516
23348	2.3434
23349	1.1776
23350	1.1317
23351	0.84358
23352	0.73646
23353	0.80491
23354	1.0217
23355	0.75098
23356	3.734
23357	3.6239
23358	2.8403
23359	4.1485
23360	2.702
23361	4.7676
23362	0.25157
23363	0.28592
23364	0.12678
23365	0.31558
23366	4.9281e-002
23367	5.9642e-002
23368	9.5357e-002
23369	0.18621
23370	3.0019e-002
23371	9.8749e-002
23372	9.0517e-002
23373	8.1338e-002
23374	1.7368
23375	1.9895
23376	0.91312
23377	0.89717
23378	1.7394
23379	1.9073
23380	2.2521
23381	1.8633
23382	2.2827
23383	2.4875
23384	2.4394
23385	2.6331
23386	2.535
23387	2.4024
23388	2.2246
23389	1.4773
23390	1.9011
23391	2.1251
23392	1.8437
23393	2.1043
23394	1.6826
23395	1.8752
23396	2.5515
23397	2.0593
23398	2.3097
23399	2.4506
23400	1.8704
23401	1.3195
23402	1.8779
23403	1.6019
23404	1.9197
23405	2.0481
23406	2.0524
23407	1.1685
23408	0.93864
23409	0.57749
23410	0.58132
23411	1.8096
23412	0.85536
23413	0.6342
23414	0.6448
23415	1.3705
23416	0.43139
23417	2.0699
23418	2.546
23419	2.4714
23420	2.4434
23421	2.3818
23422	2.5507
23423	2.6497
23424	2.6012
23425	2.459
23426	2.4038
23427	0.71269
23428	0.74724
23429	0.6936
23430	0.69881
23431	0.75477
23432	0.70609
23433	0.72204
23434	0.66155
23435	0.64244
23436	3.5521e-002
23437	3.6698e-002
23438	0.1725
23439	1.9786e-002
23440	6.4629e-002
23441	4.4218e-002
23442	0.17073
23443	1.1039
23444	1.1452
23445	1.0425
23446	1.1386
23447	1.0835
23448	1.0506
23449	1.1037
23450	0.7675
23451	0.62699
23452	0.40699
23453	0.95584
23454	3.0852
23455	3.2948
23456	3.2564
23457	3.8661
23458	3.1318
23459	3.4472
23460	3.3503
23461	3.3453
23462	1.3589
23463	3.1255
23464	3.5319
23465	2.9142
23466	3.7688
23467	12.968
23468	13.965
23469	14.902
23470	21.961
23471	13.822
23472	11.929
23473	12.583
23474	22.004
23475	17.839
23476	15.246
23477	15.677
23478	1.9482
23479	2.0204
23480	1.9478
23481	1.7394
23482	0.84339
23483	0.83311
23484	0.77352
23485	1.3632
23486	1.1883
23487	2.5331
23488	1.8898
23489	2.1436
23490	2.3993
23491	1.7077
23492	1.8056
23493	2.132
23494	2.7351
23495	1.7542
23496	1.0733
23497	0.18488
23498	0.12539
23499	0.1322
23500	0.29178
23501	0.19708
23502	0.15486
23503	0.61529
23504	0.58011
23505	0.60336
23506	0.55243
23507	0.58467
23508	0.72118
23509	0.48897
23510	0.65656
23511	0.47292
23512	3.9912
23513	4.0762
23514	3.1742
23515	2.4116
23516	2.2613
23517	2.2298
23518	2.4408
23519	2.5562
23520	0.74258
23521	0.73487
23522	0.8314
23523	0.68027
23524	0.7666
23525	0.70909
23526	0.61069
23527	7.1096
23528	6.7997
23529	7.0043
23530	7.2703
23531	7.1647
23532	7.2974
23533	7.3932
23534	7.3495
23535	7.1186
23536	6.9564
23537	7.4183
23538	7.3185
23539	9.7309e-002
23540	9.0919e-002
23541	1.9029
23542	1.8704
23543	1.9896
23544	1.5861
23545	1.9639
23546	2.0375
23547	2.091
23548	2.4312
23549	4.5155
23550	4.3102
23551	4.2544
23552	2.7439
23553	3.4503
23554	4.5161
23555	0.4492
23556	0.46349
23557	0.39003
23558	0.41678
23559	0.38413
23560	3.1256
23561	3.075
23562	2.8601
23563	3.0033
23564	2.2252
23565	3.596
23566	2.5178
23567	3.3637
23568	3.234
23569	2.646
23570	2.1981
23571	3.9102
23572	4.2854
23573	3.0621
23574	4.0909
23575	4.0741
23576	2.7443
23577	2.7846
23578	2.6508
23579	2.6094
23580	2.4212
23581	2.8011
23582	4.2998
23583	2.7533
23584	4.235
23585	3.9693
23586	3.5151
23587	0.96675
23588	1.0376
23589	0.89015
23590	0.93428
23591	0.76539
23592	2.3549
23593	0.44062
23594	1.0245
23595	1.3306
23596	1.391
23597	1.0355
23598	1.1847
23599	1.2057
23600	1.0865
23601	1.0637
23602	0.86857
23603	0.95379
23604	1.25
23605	1.2031
23606	3.0848
23607	3.0264
23608	2.8354
23609	2.5205
23610	2.881
23611	2.9632
23612	3.7558
23613	3.6554
23614	3.3872
23615	3.2418
23616	3.3139
23617	3.1114
23618	2.54
23619	3.182
23620	3.133
23621	3.0177
23622	1.028
23623	0.91699
23624	0.81615
23625	0.61784
23626	0.66829
23627	0.48511
23628	0.45163
23629	0.23881
23630	0.26003
23631	0.20908
23632	0.25746
23633	0.17341
23634	0.17629
23635	0.20186
23636	0.12633
23637	0.13261
23638	0.11345
23639	0.10907
23640	0.1057
23641	7.3031e-002
23642	0.10006
23643	0.12705
23644	0.14436
23645	5.4278
23646	4.3867
23647	5.1428
23648	4.3298
23649	4.2585
23650	5.8152
23651	4.3101
23652	5.4946
23653	4.6903
23654	4.4951
23655	5.9726
23656	5.2377
23657	5.8773
23658	5.0147
23659	5.5358
23660	2.9347
23661	2.6417
23662	2.3046
23663	2.1742
23664	2.458
23665	2.4862
23666	2.7749
23667	2.8661
23668	2.7804
23669	3.1952
23670	3.2887
23671	2.8817
23672	2.8738
23673	2.6335
23674	3.1156
23675	3.2212
23676	2.9836
23677	2.8648
23678	0.72845
23679	0.89719
23680	0.8742
23681	0.75654
23682	0.82773
23683	0.4252
23684	0.33861
23685	0.26824
23686	0.38525
23687	0.28528
23688	0.39057
23689	0.26998
23690	0.34445
23691	0.45918
23692	0.3149
23693	1.5841
23694	1.7159
23695	1.6561
23696	1.4691
23697	3.143
23698	2.7252
23699	2.4806
23700	2.2193
23701	2.6826
23702	2.4738
23703	2.7606
23704	4.3054
23705	3.5491
23706	3.7835
23707	4.3306
23708	3.6292
23709	4.0601
23710	4.8474
23711	1.6493
23712	2.04
23713	2.0575
23714	3.3777
23715	1.0441
23716	2.6387
23717	1.7739
23718	1.7063
23719	1.7684
23720	1.7506
23721	1.8425
23722	8.0541e-002
23723	5.8853e-002
23724	2.5033e-002
23725	2.8606e-002
23726	4.0961e-002
23727	7.0448e-002
23728	3.2134e-002
23729	3.6402e-002
23730	2.9876e-002
23731	6.1361e-002
23732	2.725e-002
23733	2.9758e-002
23734	4.7611e-002
23735	2.698e-002
23736	3.5712e-002
23737	3.2806
23738	2.4278
23739	2.5014
23740	2.6871
23741	3.9436
23742	4.5485
23743	2.8996
23744	0.79566
23745	1.2158
23746	0.5133
23747	0.63946
23748	1.1014
23749	0.6986
23750	0.72742
23751	4.1294
23752	4.1475
23753	2.5349
23754	3.2857
23755	5.0496
23756	3.5759
23757	4.9609
23758	5.376
23759	3.1892
23760	3.184
23761	3.2042
23762	3.3055
23763	3.4378
23764	3.2948
23765	5.43
23766	6.5083
23767	4.8874
23768	4.3235
23769	4.4195
23770	5.0222
23771	4.6699
23772	5.8119
23773	5.7722
23774	5.0494
23775	7.4757e-002
23776	0.11794
23777	0.15729
23778	0.22177
23779	0.75636
23780	0.70078
23781	0.75915
23782	0.41703
23783	0.84898
23784	0.49682
23785	0.62381
23786	0.62428
23787	0.82658
23788	0.87926
23789	1.2918
23790	1.0705
23791	1.7594
23792	1.163
23793	0.75773
23794	0.57345
23795	0.63029
23796	0.42667
23797	0.57148
23798	0.40305
23799	1.9301
23800	2.0514
23801	2.2233
23802	5.4813
23803	3.4276
23804	5.3556
23805	3.245
23806	4.8693
23807	5.0867
23808	4.418
23809	1.2033
23810	1.1513
23811	1.0916
23812	1.1449
23813	1.1072
23814	0.61614
23815	0.66004
23816	0.81529
23817	1.2626
23818	0.96909
23819	1.3339
23820	0.96029
23821	1.2522
23822	0.53159
23823	0.69994
23824	0.67643
23825	0.58799
23826	0.61755
23827	2.0105
23828	0.58379
23829	0.94138
23830	1.1914
23831	1.7815
23832	1.5971
23833	1.2001
23834	5.5275
23835	3.861
23836	6.6887
23837	4.1854
23838	5.7866
23839	7.1488
23840	5.7935
23841	6.7884
23842	0.50022
23843	0.40534
23844	0.57511
23845	0.85518
23846	0.75684
23847	0.5501
23848	2.5698
23849	2.8352
23850	2.9113
23851	2.7499
23852	2.8623
23853	2.9831
23854	2.9626
23855	3.6467
23856	4.1791
23857	2.4773
23858	2.7144
23859	2.7783
23860	4.0254
23861	4.0048
23862	2.9145
23863	2.0932
23864	2.282
23865	2.4472
23866	0.13259
23867	0.10002
23868	0.12529
23869	0.12318
23870	6.3295e-002
23871	0.77497
23872	0.80123
23873	0.79995
23874	0.87107
23875	0.86909
23876	0.77703
23877	2.6539
23878	2.8684
23879	2.4046
23880	2.6095
23881	2.7882
23882	2.7147
23883	2.4268
23884	0.89501
23885	0.69764
23886	0.78625
23887	0.70709
23888	0.57649
23889	0.74958
23890	3.1276
23891	2.3382
23892	2.9677
23893	1.8899
23894	1.8423
23895	3.4089
23896	3.4391
23897	2.6723
23898	3.3807
23899	6.5542
23900	5.3136
23901	5.6897
23902	6.8758
23903	7.8616
23904	5.069
23905	3.8661
23906	7.8086
23907	3.8971
23908	7.6703
23909	11.365
23910	4.3795
23911	9.0742
23912	12.029
23913	8.6445
23914	4.197
23915	4.4159
23916	9.7567
23917	11.437
23918	7.7303
23919	8.345e-002
23920	0.11575
23921	0.12159
23922	0.16236
23923	0.14586
23924	0.61923
23925	0.66022
23926	0.80716
23927	0.63834
23928	0.48707
23929	0.55763
23930	0.36096
23931	0.50713
23932	0.39054
23933	0.31553
23934	0.42784
23935	5.3355
23936	3.4014
23937	5.1763
23938	3.6993
23939	5.4482
23940	5.2331
23941	5.376
23942	4.166
23943	3.6025
23944	2.9569
23945	2.9626
23946	2.9874
23947	3.2722
23948	3.0541
23949	3.5657
23950	3.0941
23951	3.2934
23952	3.8015
23953	3.1922
23954	3.2174
23955	0.46396
23956	0.43418
23957	0.35235
23958	0.27889
23959	0.34302
23960	0.15938
23961	0.21125
23962	0.19227
23963	0.16867
23964	0.2646
23965	0.19959
23966	0.15216
23967	0.17821
23968	0.35175
23969	0.22867
23970	2.2739
23971	2.4511
23972	2.6219
23973	1.9416
23974	2.2566
23975	1.8862
23976	2.9759
23977	3.3843
23978	7.5625
23979	8.0258
23980	7.5707
23981	8.0148
23982	7.8156
23983	7.825
23984	7.8188
23985	8.064
23986	7.818
23987	7.0471
23988	6.9809
23989	8.0931
23990	0.98868
23991	0.74209
23992	1.0415
23993	2.4561
23994	2.3815
23995	1.6347
23996	2.6576
23997	2.5801
23998	4.7815
23999	2.9957
24000	5.2956
24001	4.9671
24002	4.1017
24003	4.4455
24004	3.1124
24005	2.8203
24006	3.1457
24007	3.0638
24008	3.2894
24009	2.9767
24010	1.3475
24011	1.179
24012	1.9688
24013	1.2044
24014	1.6318
24015	1.6016
24016	2.2278
24017	2.0877
24018	1.1327
24019	1.5587
24020	1.1229
24021	1.8654
24022	2.1495
24023	1.1968
24024	2.5406
24025	2.1777
24026	2.1839
24027	2.8205
24028	2.1945
24029	2.4777
24030	1.3858
24031	1.8345
24032	1.5003
24033	2.031
24034	1.6898
24035	2.333
24036	2.2734
24037	2.6288
24038	2.4066
24039	2.3727
24040	2.6474
24041	3.1618
24042	2.0757
24043	0.75765
24044	0.63631
24045	0.86385
24046	0.89058
24047	0.97301
24048	0.84746
24049	2.4535
24050	2.9015
24051	3.5759
24052	3.381
24053	3.325
24054	3.912
24055	3.6822
24056	2.8049
24057	2.7985
24058	3.9654
24059	3.3724
24060	1.7447
24061	1.857
24062	1.9341
24063	3.2137
24064	3.1868
24065	3.3607
24066	3.3506
24067	3.137
24068	0.46052
24069	0.42365
24070	0.26922
24071	0.34519
24072	0.1641
24073	0.198
24074	0.19735
24075	0.27032
24076	0.14997
24077	0.18075
24078	0.23673
24079	0.35732
24080	5.7916
24081	5.2701
24082	5.8335
24083	5.3144
24084	5.9314
24085	6.035
24086	5.7648
24087	5.7829
24088	1.6984
24089	1.7484
24090	1.807
24091	1.8589
24092	1.7393
24093	1.6772
24094	1.7146
24095	1.1562
24096	1.0918
24097	1.0569
24098	1.4874
24099	9.1313
24100	11.083
24101	9.8954
24102	3.3154
24103	1.9251
24104	4.4741
24105	2.7464
24106	2.3506
24107	2.3914
24108	4.5172
24109	2.9342
24110	0.96216
24111	2.9403
24112	1.0215
24113	3.1348
24114	3.1401
24115	3.4691
24116	2.8975
24117	2.3492
24118	3.4498
24119	3.347
24120	3.3718
24121	3.3079
24122	3.2996
24123	9.427
24124	9.8208
24125	13.502
24126	11.565
24127	12.303
24128	5.73
24129	5.463
24130	3.9984
24131	2.398
24132	5.3157
24133	5.1344
24134	4.3873
24135	3.7882
24136	2.2171
24137	0.909
24138	0.79908
24139	0.63043
24140	0.48769
24141	0.57714
24142	0.84987
24143	0.80762
24144	0.5561
24145	0.73602
24146	0.55656
24147	0.67223
24148	0.70833
24149	0.66753
24150	0.75836
24151	3.5652
24152	1.9953
24153	4.1077
24154	3.8532
24155	2.6934
24156	2.5428
24157	3.3849
24158	3.0251
24159	3.0767
24160	3.3269
24161	3.208
24162	3.2489
24163	3.3933
24164	3.3342
24165	2.7408
24166	2.2323
24167	2.5483
24168	2.3955
24169	2.8432
24170	2.5357
24171	2.8103
24172	2.4992
24173	1.0484
24174	1.0062
24175	0.92672
24176	0.86859
24177	0.87679
24178	0.89237
24179	1.2148
24180	1.5211
24181	1.1014
24182	2.3126
24183	1.0647
24184	2.7246
24185	3.6204
24186	3.2499
24187	2.8447
24188	2.9472
24189	2.5555
24190	3.1815
24191	2.9411
24192	3.3209
24193	3.2398
24194	3.4797
24195	1.0434
24196	0.97098
24197	1.1896
24198	1.6802
24199	1.8227
24200	0.75515
24201	0.66221
24202	0.50097
24203	0.46621
24204	6.0373
24205	5.7677
24206	5.9982
24207	5.765
24208	5.7849
24209	5.7684
24210	0.74588
24211	0.79902
24212	0.65723
24213	0.59026
24214	0.41244
24215	0.54888
24216	0.4832
24217	0.86131
24218	1.0003
24219	1.8461
24220	0.80467
24221	1.3253
24222	0.61228
24223	0.93534
24224	3.9567
24225	4.3908
24226	4.4145
24227	4.5163
24228	4.121
24229	3.7625
24230	3.9817
24231	2.0615
24232	1.7465
24233	2.4039
24234	3.2351
24235	1.125
24236	1.7343
24237	1.7144
24238	0.52207
24239	0.85585
24240	0.33589
24241	0.29815
24242	0.57733
24243	0.5217
24244	0.40147
24245	0.57415
24246	0.71279
24247	13.685
24248	12.944
24249	14.19
24250	13.074
24251	13.266
24252	13.853
24253	13.279
24254	12.288
24255	12.904
24256	12.611
24257	12.443
24258	13.725
24259	14.002
24260	13.066
24261	11.904
24262	12.322
24263	0.82682
24264	1.001
24265	0.95502
24266	2.9524
24267	3.2444
24268	2.5416
24269	2.3938
24270	3.1448
24271	0.4158
24272	0.33157
24273	0.23988
24274	0.68724
24275	0.40919
24276	0.26013
24277	0.4861
24278	1.5612
24279	1.5525
24280	1.4242
24281	1.2213
24282	1.2636
24283	1.6952
24284	1.8541
24285	1.9752
24286	3.2387
24287	2.998
24288	3.2559
24289	2.8492
24290	2.6858
24291	2.8571
24292	1.6014
24293	0.68573
24294	0.93501
24295	0.72403
24296	0.59645
24297	0.99606
24298	1.3823
24299	1.4312
24300	1.6903
24301	4.2426
24302	4.2533
24303	3.8293
24304	4.6355
24305	3.8851
24306	4.3359
24307	4.6113
24308	3.9733
24309	3.9287
24310	3.7286
24311	4.3146
24312	3.5745
24313	3.6709
24314	0.57796
24315	0.57462
24316	3.2203
24317	3.1372
24318	3.0618
24319	3.013
24320	2.3973
24321	3.1288
24322	4.1951
24323	3.6016
24324	2.525
24325	2.547
24326	4.4266
24327	3.1924
24328	3.2222
24329	3.4127
24330	3.5159
24331	4.1965
24332	4.2163
24333	4.6362
24334	4.549
24335	4.0584
24336	3.8283
24337	3.6193
24338	4.6532
24339	4.689
24340	4.216
24341	3.9405
24342	3.9424
24343	3.9019
24344	2.0155
24345	2.6115
24346	1.6541
24347	1.8453
24348	2.032
24349	1.3507
24350	1.18
24351	1.8851
24352	1.9871
24353	2.529
24354	0.81582
24355	0.96163
24356	0.69356
24357	0.5186
24358	0.62676
24359	0.78917
24360	1.0955
24361	1.1432
24362	1.0672
24363	5.5052
24364	3.4151
24365	5.5347
24366	3.3562
24367	5.4356
24368	4.848
24369	5.3161
24370	5.1825e-002
24371	0.2742
24372	0.30786
24373	0.15073
24374	0.10679
24375	7.5806e-002
24376	2.8231e-002
24377	0.20461
24378	9.9095e-002
24379	5.5702e-002
24380	1.1694
24381	1.1934
24382	1.1025
24383	1.2361
24384	0.45119
24385	0.48598
24386	0.53903
24387	0.5292
24388	0.50295
24389	0.3588
24390	0.29632
24391	0.40665
24392	0.37415
24393	0.22546
24394	0.28832
24395	0.19438
24396	0.21247
24397	2.7902
24398	2.8894
24399	2.8481
24400	2.8201
24401	1.9147
24402	1.7203
24403	1.6481
24404	2.1649
24405	4.1911
24406	3.0058
24407	4.4382
24408	2.2778
24409	2.5825
24410	2.666
24411	3.6417
24412	2.1551
24413	3.1088
24414	2.8401
24415	2.2713
24416	2.753
24417	2.9968
24418	3.6162
24419	4.2936
24420	2.3464
24421	2.8184
24422	3.8121
24423	3.7571
24424	2.4018
24425	3.7683
24426	3.0485
24427	2.6286
24428	2.7253
24429	2.4655
24430	0.70711
24431	2.7341
24432	2.4897
24433	2.7611
24434	0.39239
24435	2.9263
24436	0.43171
24437	0.47798
24438	0.42267
24439	0.39709
24440	0.52815
24441	1.7948
24442	1.9621
24443	2.0363
24444	2.0826
24445	2.2771
24446	2.0715
24447	2.0255
24448	1.9515
24449	0.91466
24450	0.8317
24451	0.84222
24452	0.78161
24453	0.80979
24454	0.79548
24455	0.87146
24456	0.86843
24457	0.79754
24458	0.82404
24459	0.81748
24460	0.99426
24461	0.74369
24462	0.90067
24463	0.75954
24464	0.74538
24465	0.62425
24466	1.7517
24467	1.824
24468	1.8733
24469	1.9861
24470	3.0507
24471	2.831
24472	3.0748
24473	5.7491
24474	4.2687
24475	5.8516
24476	5.4165
24477	4.3669
24478	4.3725
24479	4.6442
24480	5.343
24481	5.9068
24482	5.654
24483	3.8252
24484	3.81
24485	5.2068
24486	4.5498
24487	4.4685
24488	4.3899
24489	3.1606
24490	3.3633
24491	3.022
24492	2.3311
24493	3.529
24494	1.6215
24495	1.6817
24496	4.2713
24497	5.4011
24498	7.0718
24499	7.7669
24500	7.2521
24501	9.0398
24502	8.6433
24503	9.5015
24504	5.8626
24505	6.3847
24506	6.6587
24507	5.3158
24508	7.8865
24509	7.4499
24510	6.5828
24511	7.1586
24512	8.0122
24513	6.7546
24514	4.7572
24515	6.0202
24516	6.7546
24517	1.1576
24518	1.1931
24519	1.1517
24520	1.2695
24521	1.2977
24522	0.30398
24523	0.32158
24524	0.30132
24525	2.4631
24526	1.6958
24527	1.2749
24528	4.3788
24529	3.2747
24530	4.1981
24531	3.3207
24532	2.5676
24533	3.7962
24534	4.1475
24535	4.3639
24536	4.1774
24537	3.3509
24538	3.3358
24539	2.1522
24540	1.9904
24541	2.255
24542	2.0665
24543	2.1322
24544	0.25605
24545	0.75785
24546	0.26336
24547	0.17835
24548	0.95449
24549	0.31515
24550	0.33992
24551	0.28041
24552	0.55486
24553	0.84732
24554	0.83449
24555	0.87098
24556	0.87492
24557	0.79955
24558	0.91863
24559	1.1778
24560	1.3838
24561	1.1882
24562	1.4794
24563	1.1504
24564	0.99477
24565	1.4595
24566	1.3881
24567	1.3018
24568	1.8665
24569	1.3419
24570	1.8512
24571	1.9432
24572	1.5874
24573	1.171
24574	1.0267
24575	1.6328
24576	1.8359
24577	1.7547
24578	1.4937
24579	1.5514
24580	2.6398
24581	2.9842
24582	2.406
24583	2.5331
24584	2.0847
24585	1.8175
24586	0.64341
24587	1.1316
24588	1.3877
24589	1.5119
24590	1.4681
24591	2.3952
24592	2.0449
24593	1.8958
24594	2.1499
24595	1.9173
24596	1.6868
24597	0.69519
24598	0.64146
24599	0.68285
24600	0.54945
24601	0.8762
24602	1.0372
24603	1.1538
24604	1.4287
24605	2.2099
24606	2.3061
24607	1.176
24608	2.4593
24609	1.9731
24610	2.3687
24611	1.6448
24612	1.4969
24613	1.7781
24614	1.409
24615	1.2714
24616	1.777
24617	1.5262
24618	1.3639
24619	2.0125
24620	0.6858
24621	0.83397
24622	0.88819
24623	0.68367
24624	0.66059
24625	0.61389
24626	0.62026
24627	0.64671
24628	0.84414
24629	0.90573
24630	2.0552
24631	1.9213
24632	1.5745
24633	1.0449
24634	0.88908
24635	0.84475
24636	1.7134
24637	2.3066
24638	0.9031
24639	0.92951
24640	2.0952
24641	1.6764
24642	1.7765
24643	1.0934
24644	1.2406
24645	4.5795
24646	4.9621
24647	5.4115
24648	6.7909
24649	4.2415
24650	5.2034
24651	0.99941
24652	0.99502
24653	0.94004
24654	0.94658
24655	1.8617
24656	1.7243
24657	2.1109
24658	1.9866
24659	1.0399
24660	1.1453
24661	1.1556
24662	1.3706
24663	1.2965
24664	1.2573
24665	1.4245
24666	0.77526
24667	1.5629
24668	2.1212
24669	0.58894
24670	1.1787
24671	1.1393
24672	1.0788
24673	2.8525
24674	3.0989
24675	2.8077
24676	2.375
24677	3.1023
24678	3.5852
24679	3.9242
24680	3.9663
24681	2.6747
24682	1.9546
24683	2.4698
24684	2.8858
24685	2.3586
24686	2.7908
24687	2.7333
24688	2.9299
24689	2.8728
24690	0.28338
24691	0.26463
24692	0.21558
24693	0.19129
24694	0.86814
24695	2.6485
24696	1.2593
24697	1.1418
24698	1.3288
24699	1.3414
24700	1.0693
24701	1.1021
24702	1.2296
24703	2.7383
24704	2.7482
24705	2.88
24706	2.7896
24707	2.6849
24708	2.5708
24709	2.2957
24710	3.097
24711	4.5528
24712	3.624
24713	3.5816
24714	2.4414
24715	0.20016
24716	0.25979
24717	0.17211
24718	0.10269
24719	0.1159
24720	2.0336
24721	2.144
24722	2.1017
24723	1.3738
24724	1.3356
24725	1.5829
24726	1.5049
24727	1.723
24728	1.7611
24729	1.9253
24730	2.5054
24731	2.0338
24732	2.4969
24733	2.4968
24734	1.8622
24735	2.3289
24736	2.4676
24737	2.0801
24738	2.5884
24739	2.3434
24740	3.4239
24741	2.9784
24742	3.2425
24743	2.9842
24744	3.4698
24745	3.3357
24746	4.1659
24747	3.8668
24748	3.4872
24749	2.4578
24750	2.5893
24751	0.57677
24752	2.6099
24753	2.4856
24754	1.1421
24755	2.17
24756	2.2435
24757	1.081
24758	1.0814
24759	2.4216
24760	2.0149
24761	1.7597
24762	4.2806
24763	4.412
24764	4.5127
24765	4.554
24766	4.4043
24767	4.2288
24768	4.3795
24769	4.3955
24770	5.7425
24771	5.5924
24772	4.3668
24773	5.0229
24774	5.9253
24775	5.6738
24776	5.0222
24777	3.3084
24778	2.7112
24779	2.8059
24780	3.5133
24781	3.8113
24782	3.5646
24783	3.7973
24784	1.6166
24785	3.5584
24786	2.1708
24787	3.817
24788	1.6868
24789	1.8214
24790	1.8157
24791	1.2284
24792	2.3906
24793	4.0636
24794	3.7549
24795	3.2912
24796	4.0776
24797	4.573
24798	4.4783
24799	3.8448
24800	3.2996
24801	4.7896
24802	4.7459
24803	5.0255
24804	3.8116
24805	4.7601
24806	4.3368
24807	2.7255
24808	3.7443
24809	3.6196
24810	3.8321
24811	6.275
24812	4.2319
24813	5.001
24814	5.4068
24815	6.714
24816	5.7815
24817	1.0368
24818	1.1554
24819	0.90738
24820	0.61395
24821	0.50197
24822	0.78027
24823	0.54718
24824	1.3517
24825	1.4426
24826	1.2691
24827	1.535
24828	1.3579
24829	1.5432
24830	1.0473
24831	0.82979
24832	2.1595
24833	0.80999
24834	0.62882
24835	0.7501
24836	0.59955
24837	0.74049
24838	2.0555
24839	3.3874
24840	3.2233
24841	2.5887
24842	2.8582
24843	2.4895
24844	3.0591
24845	2.8604
24846	3.2142
24847	2.5615
24848	2.1935
24849	2.563
24850	1.9053
24851	1.7182
24852	2.078
24853	1.9569
24854	1.6527
24855	1.0393
24856	1.0568
24857	0.95206
24858	0.81547
24859	0.70631
24860	0.57984
24861	0.60832
24862	0.84214
24863	0.46373
24864	0.58503
24865	0.43512
24866	0.91723
24867	0.71014
24868	0.42899
24869	0.61478
24870	0.44093
24871	0.62728
24872	1.4375
24873	1.5362
24874	1.2632
24875	0.89648
24876	0.71485
24877	0.25294
24878	0.7983
24879	0.6003
24880	0.55217
24881	0.20339
24882	0.40245
24883	0.32339
24884	0.66953
24885	0.67512
24886	0.57594
24887	0.41031
24888	0.34003
24889	0.46559
24890	0.30133
24891	0.36193
24892	2.7585
24893	2.505
24894	2.1511
24895	3.2954
24896	2.5434
24897	2.1058
24898	6.7784
24899	7.4292
24900	6.6884
24901	7.0283
24902	7.1089
24903	5.9937
24904	6.4288
24905	2.9437
24906	2.9732
24907	3.7002
24908	4.1727
24909	3.7178
24910	4.843
24911	4.3581
24912	4.1054
24913	5.3498
24914	4.5297
24915	5.7958
24916	4.7007
24917	6.346
24918	5.9935
24919	3.0398
24920	3.3817
24921	3.548
24922	3.7832
24923	2.7645
24924	2.8901
24925	3.0099
24926	2.9729
24927	0.73119
24928	0.65635
24929	0.71183
24930	0.43664
24931	0.62076
24932	0.78983
24933	3.608
24934	4.1713
24935	3.7855
24936	3.3507
24937	4.1008
24938	4.1224
24939	4.074
24940	3.9197
24941	3.9702
24942	3.2003
24943	3.4513
24944	3.6428
24945	3.7913
24946	3.019
24947	4.197
24948	1.0734
24949	1.1456
24950	0.69244
24951	0.16997
24952	0.73577
24953	0.77401
24954	0.96882
24955	0.28076
24956	0.37524
24957	0.56839
24958	0.50956
24959	0.87413
24960	0.82356
24961	0.74822
24962	0.57606
24963	0.51257
24964	0.71378
24965	0.81464
24966	0.65662
24967	8.3317
24968	8.1538
24969	7.4115
24970	11.491
24971	11.378
24972	9.3135
24973	7.496
24974	8.4398
24975	8.3294
24976	11.138
24977	8.3266
24978	9.0229
24979	11.597
24980	6.1824
24981	4.8408
24982	5.2722
24983	6.0454
24984	5.1657
24985	0.67843
24986	0.73872
24987	0.59376
24988	1.7557
24989	4.974
24990	4.8682
24991	4.9439
24992	3.5256
24993	3.9557
24994	3.8417
24995	4.7045
24996	3.6245
24997	4.0418
24998	1.7527
24999	1.6062
25000	1.4125
25001	2.0161
25002	1.7758
25003	1.5474
25004	1.3938
25005	1.9335
25006	1.9442
25007	2.2047
25008	2.0904
25009	2.2553
25010	2.6429
25011	1.8878
25012	2.0452
25013	5.6269
25014	5.0182
25015	6.0544
25016	6.102
25017	5.1188
25018	5.7957
25019	6.2021
25020	5.7595
25021	6.3672
25022	5.9907
25023	5.2703
25024	6.4185
25025	6.5386
25026	6.5514
25027	3.9849
25028	2.1491
25029	2.986
25030	1.7787
25031	1.1591
25032	0.64494
25033	0.285
25034	0.33482
25035	0.50649
25036	0.35753
25037	0.45195
25038	0.44306
25039	2.8134
25040	2.3253
25041	2.9762
25042	2.9518
25043	1.6696
25044	2.827
25045	2.452
25046	2.1576
25047	1.8507
25048	2.2459
25049	2.1059
25050	2.4732
25051	2.6917
25052	1.4838
25053	1.3889
25054	1.4808
25055	1.5797
25056	0.49165
25057	0.57564
25058	0.61227
25059	0.66552
25060	0.8051
25061	0.76608
25062	0.75518
25063	0.67012
25064	0.70751
25065	0.59282
25066	0.56076
25067	0.66229
25068	0.6313
25069	0.40225
25070	0.32712
25071	0.43488
25072	0.83472
25073	0.34199
25074	0.39062
25075	0.62035
25076	0.54492
25077	1.7307
25078	1.8345
25079	1.955
25080	1.1316
25081	1.1381
25082	1.1236
25083	1.0927
25084	1.1341
25085	4.2311
25086	7.6562
25087	8.2104
25088	10.083
25089	1.1257
25090	1.4551
25091	0.79281
25092	1.1875
25093	1.4602
25094	3.5516
25095	3.7444
25096	3.5729
25097	3.573
25098	3.543
25099	4.7608
25100	3.8209
25101	3.8133
25102	3.3229
25103	3.7915
25104	3.8432
25105	2.9565
25106	3.0558
25107	4.1591
25108	3.3994
25109	4.703
25110	3.7177
25111	4.9622
25112	4.9724
25113	5.2989
25114	5.2858
25115	4.6121
25116	1.5027
25117	1.6202
25118	1.5844
25119	1.8294
25120	1.8152
25121	1.6932
25122	1.0306
25123	1.022
25124	0.97629
25125	0.93343
25126	6.5433
25127	6.1978
25128	6.4199
25129	4.8191
25130	5.2521
25131	4.9866
25132	3.2902
25133	4.7212
25134	4.3907
25135	2.8708
25136	3.311
25137	4.4223
25138	7.5142
25139	6.8966
25140	7.1203
25141	6.001
25142	6.5398
25143	7.3307
25144	7.0457
25145	6.6198
25146	6.5479
25147	6.4484
25148	6.1653
25149	0.36843
25150	7.6313e-002
25151	3.4684e-002
25152	0.23311
25153	7.7738e-002
25154	0.18558
25155	4.0482
25156	3.7968
25157	3.7382
25158	3.0331
25159	4.6475
25160	3.4869
25161	3.891
25162	5.0887
25163	6.9068
25164	0.97651
25165	1.0526
25166	1.1508
25167	0.92109
25168	1.4802
25169	1.0154
25170	1.9238
25171	2.1773
25172	2.0206
25173	5.9785
25174	4.5525
25175	4.4575
25176	4.5762
25177	6.0526
25178	4.3034
25179	6.1308
25180	5.248
25181	5.0888
25182	4.159
25183	5.7842
25184	6.3408
25185	6.2397
25186	5.6607
25187	0.78102
25188	0.85293
25189	0.8226
25190	0.81887
25191	2.0204
25192	1.8452
25193	7.6933
25194	7.9173
25195	4.6953
25196	4.6858
25197	5.2863
25198	1.1264
25199	1.0354
25200	1.153
25201	1.1659
25202	0.94611
25203	0.97729
25204	4.1741
25205	4.2561
25206	4.193
25207	4.1854
25208	4.0555
25209	4.4775
25210	4.1396
25211	3.9399
25212	4.0667
25213	4.0056
25214	4.1808
25215	4.0794
25216	3.4017
25217	3.541
25218	3.5461
25219	2.8264
25220	3.3878
25221	3.9567
25222	3.9566
25223	2.7649
25224	2.8339
25225	0.89195
25226	0.83263
25227	0.94843
25228	0.77544
25229	0.73472
25230	0.75816
25231	0.72007
25232	0.82141
25233	3.3469
25234	3.3583
25235	2.7732
25236	2.7532
25237	3.598
25238	2.7451
25239	3.3499
25240	3.5949
25241	3.9905
25242	2.7758
25243	3.3504
25244	8.2847
25245	3.2513
25246	12.118
25247	9.8555
25248	3.4048
25249	4.232
25250	9.592
25251	8.5358
25252	5.1749
25253	2.7076
25254	4.0791
25255	3.0187
25256	3.9639
25257	2.2116
25258	1.6408
25259	3.5733
25260	3.2836
25261	3.2666
25262	2.3238
25263	2.5954
25264	2.9395
25265	3.0732
25266	3.5027
25267	3.542
25268	3.9924
25269	2.6611
25270	2.6527
25271	2.1112
25272	2.4666
25273	1.2917
25274	1.2366
25275	1.3937
25276	4.0997
25277	3.903
25278	1.5479
25279	1.4262
25280	1.6808
25281	1.3961
25282	0.97168
25283	0.82805
25284	1.7803
25285	1.6664
25286	0.6889
25287	0.64827
25288	0.71627
25289	0.75434
25290	0.69373
25291	2.6103
25292	2.3816
25293	2.7443
25294	0.16151
25295	4.3997e-002
25296	2.7704e-002
25297	2.8549e-002
25298	5.529e-002
25299	2.2718e-002
25300	3.3787e-002
25301	0.11272
25302	6.6803e-002
25303	8.6717e-002
25304	4.1568e-002
25305	0.90138
25306	1.0938
25307	1.0417
25308	1.2725
25309	3.4106
25310	3.6978
25311	3.4568
25312	3.0655
25313	0.6408
25314	0.75289
25315	0.84203
25316	1.01
25317	1.3904
25318	2.2861
25319	1.7976
25320	1.9293
25321	2.8214
25322	2.4149
25323	2.5884
25324	2.41
25325	2.3237
25326	2.4756
25327	2.6295
25328	2.7339
25329	2.7642
25330	4.4634
25331	4.3679
25332	4.7596
25333	3.5216
25334	4.9265
25335	4.2878
25336	2.8006
25337	3.0293
25338	5.964
25339	4.4343
25340	4.5201
25341	6.0205
25342	5.7542
25343	4.3301
25344	4.7223
25345	5.1067
25346	4.1007
25347	5.6141
25348	6.0837
25349	5.2998
25350	5.7104
25351	6.2484
25352	5.343
25353	3.8905
25354	4.0259
25355	4.2174
25356	4.3277
25357	6.2346
25358	6.6875
25359	5.1685
25360	4.6049
25361	6.967
25362	5.5725
25363	8.8929
25364	5.971
25365	2.9055
25366	2.0339
25367	2.4666
25368	2.3273
25369	2.5937
25370	2.5173
25371	3.4447
25372	3.375
25373	3.519
25374	3.5711
25375	4.9093
25376	4.8494
25377	4.6261
25378	0.86085
25379	0.43737
25380	1.3058
25381	0.53785
25382	0.98302
25383	0.61753
25384	0.84906
25385	1.1635
25386	1.2106
25387	1.1358
25388	1.2305
25389	3.8835
25390	4.0375
25391	4.6751
25392	3.1366
25393	4.498
25394	4.7191
25395	1.5564
25396	1.4513
25397	1.8471
25398	1.6826
25399	0.96205
25400	0.94513
25401	1.1772
25402	0.93973
25403	3.2645
25404	3.2808
25405	3.2638
25406	2.8259
25407	2.8287
25408	3.4285
25409	3.0669
25410	3.3043
25411	3.4341
25412	3.3142
25413	5.2156
25414	7.0649
25415	6.9671
25416	5.474
25417	6.075
25418	7.2151
25419	5.3144
25420	5.6001
25421	3.6711
25422	4.5982
25423	6.9976
25424	3.7864
25425	5.0882
25426	8.0411
25427	4.4815
25428	5.6948
25429	1.844
25430	2.7534
25431	2.3297
25432	1.6963
25433	1.8395
25434	1.6762
25435	1.6758
25436	1.8382
25437	3.831
25438	4.3099
25439	3.5702
25440	2.8355
25441	2.5503
25442	3.2173
25443	4.2918
25444	3.3787
25445	3.9981
25446	0.64063
25447	0.82293
25448	0.67921
25449	0.60442
25450	0.70076
25451	0.62178
25452	0.63392
25453	0.6489
25454	0.56544
25455	3.2775
25456	3.2938
25457	3.1273
25458	3.2462
25459	3.6217
25460	2.4272
25461	2.5109
25462	2.6794
25463	3.3267
25464	3.1615
25465	2.7509
25466	3.866
25467	2.5397
25468	2.5364
25469	2.01
25470	2.2483
25471	12.171
25472	10.658
25473	8.1652
25474	4.3402
25475	5.3762
25476	11.297
25477	9.3105
25478	4.7282
25479	4.7374
25480	4.5673
25481	8.976
25482	12.076
25483	4.1706
25484	7.946
25485	11.498
25486	10.176
25487	8.0211
25488	11.966
25489	11.463
25490	2.4196
25491	1.9838
25492	1.3101
25493	1.2787
25494	1.8437
25495	1.015
25496	0.71107
25497	2.3076
25498	1.5874
25499	1.123
25500	0.28993
25501	0.24785
25502	0.18784
25503	0.29192
25504	0.38787
25505	0.302
25506	0.45572
25507	0.4092
25508	0.52059
25509	3.2167
25510	4.3495
25511	3.8938
25512	3.5959
25513	3.832
25514	3.9197
25515	2.4433
25516	3.4138
25517	2.4189
25518	3.9484
25519	3.0339
25520	3.9509
25521	4.9438
25522	5.1057
25523	4.207
25524	4.6347
25525	2.0776
25526	2.0095
25527	1.8894
25528	1.7104
25529	3.1184
25530	1.9524
25531	3.0759
25532	2.7805
25533	3.2575
25534	2.0801
25535	3.2292
25536	2.8858
25537	2.8726
25538	0.17354
25539	0.20988
25540	0.15047
25541	0.25399
25542	2.6665
25543	4.726
25544	3.0481
25545	2.7671
25546	3.1301
25547	5.198
25548	4.1391
25549	3.8255
25550	0.7813
25551	0.7265
25552	0.85395
25553	0.87453
25554	0.78072
25555	0.73694
25556	0.80609
25557	0.77602
25558	0.736
25559	0.96267
25560	0.94691
25561	0.76598
25562	0.75516
25563	0.54522
25564	0.82041
25565	1.1827
25566	1.816
25567	1.8044
25568	2.3714
25569	2.3358
25570	2.0424
25571	2.5076
25572	2.0206
25573	4.0447
25574	4.6333
25575	4.7103
25576	3.4566
25577	4.4224
25578	3.1947
25579	3.7206
25580	3.8836
25581	3.7109
25582	3.3963
25583	1.1824
25584	1.2072
25585	1.1071
25586	1.2385
25587	1.279
25588	1.3755
25589	1.3291
25590	1.3281
25591	3.2027
25592	3.2999
25593	3.2136
25594	2.943
25595	3.1831
25596	3.2197
25597	3.1407
25598	2.9989
25599	3.8049
25600	3.7891
25601	3.5823
25602	3.5506
25603	3.544
25604	4.0125
25605	3.3186
25606	3.3978
25607	3.6208
25608	3.8618
25609	3.5591
25610	3.5264
25611	3.5427
25612	4.2736
25613	4.2515
25614	2.9103
25615	3.0616
25616	4.0181
25617	4.423
25618	4.2879
25619	7.6429
25620	7.1329
25621	8.9085
25622	10.896
25623	9.3527
25624	7.6476
25625	3.2038
25626	2.9454
25627	2.9596
25628	3.3111
25629	3.0461
25630	2.405
25631	2.8578
25632	1.7827
25633	1.6844
25634	2.7285
25635	2.7297
25636	2.2818
25637	2.4028
25638	3.0166
25639	2.6713
25640	3.2797
25641	2.7179
25642	3.824
25643	3.4568
25644	3.1723
25645	1.355
25646	3.974
25647	2.8582
25648	2.6314
25649	4.8196
25650	3.2066
25651	2.2846
25652	2.1108
25653	0.92414
25654	2.0665
25655	1.9568
25656	1.0888
25657	2.0791
25658	4.0356
25659	1.8351
25660	4.2359
25661	1.9252
25662	2.26
25663	2.8537
25664	3.4848
25665	4.1948
25666	1.1094
25667	4.2781
25668	3.5072
25669	0.62377
25670	0.72482
25671	0.36114
25672	0.35704
25673	1.0379
25674	0.81283
25675	1.2558
25676	0.85477
25677	1.1402
25678	0.81305
25679	1.3683
25680	1.0265
25681	1.0433
25682	0.82205
25683	0.78848
25684	0.77426
25685	0.79907
25686	0.82846
25687	0.78961
25688	0.79986
25689	0.56289
25690	0.70152
25691	0.90408
25692	0.64526
25693	0.95417
25694	0.71355
25695	0.80788
25696	0.85393
25697	0.25291
25698	0.38484
25699	0.76533
25700	0.72563
25701	1.8375
25702	1.4191
25703	0.60249
25704	1.2166
25705	0.86589
25706	0.69207
25707	0.63344
25708	0.50329
25709	0.89065
25710	0.87175
25711	0.75253
25712	0.79835
25713	0.72523
25714	0.61145
25715	0.16523
25716	0.14908
25717	6.3366
25718	6.0223
25719	5.0442
25720	7.3232
25721	6.9319
25722	3.3456
25723	3.188
25724	5.0524
25725	5.8284
25726	4.6739
25727	6.1394
25728	5.4701
25729	6.3555
25730	7.6122
25731	3.5002
25732	5.6279
25733	9.1732
25734	7.6853
25735	4.4931
25736	2.8654
25737	3.9762
25738	4.3663
25739	7.5819
25740	7.0787
25741	6.2824
25742	6.0868
25743	3.2522
25744	3.6443
25745	3.1521
25746	2.9248
25747	2.574
25748	3.443
25749	3.9705
25750	4.1902
25751	4.0268
25752	3.5812
25753	3.298
25754	3.714
25755	2.4606
25756	1.9649
25757	3.4555
25758	2.5357
25759	2.2458
25760	2.268
25761	2.0967
25762	1.9483
25763	2.2288
25764	2.2568
25765	1.9041
25766	1.2132
25767	1.6078
25768	1.7686
25769	1.7247
25770	1.4974
25771	1.4499
25772	1.2877
25773	1.0835
25774	0.99448
25775	1.2088
25776	0.18667
25777	0.32022
25778	0.43579
25779	0.36696
25780	0.18596
25781	9.213e-002
25782	9.2261e-002
25783	0.13007
25784	0.15855
25785	6.5007e-002
25786	7.1732e-002
25787	0.31742
25788	0.33865
25789	6.9965e-002
25790	3.9966
25791	4.438
25792	3.9502
25793	8.4818
25794	8.4964
25795	7.7441
25796	8.5442
25797	0.78073
25798	3.1786
25799	0.72562
25800	3.2211
25801	2.2468
25802	0.24435
25803	0.20516
25804	0.33158
25805	0.40779
25806	0.43223
25807	0.49103
25808	4.776
25809	3.0866
25810	5.1457
25811	4.4811
25812	2.2957
25813	1.8182
25814	3.9809
25815	5.521
25816	4.5375
25817	1.4581
25818	1.6455
25819	1.5103
25820	3.2487
25821	3.2093
25822	3.4073
25823	2.8019
25824	3.2551
25825	2.7239
25826	3.295
25827	2.5933
25828	3.2693
25829	2.6124
25830	2.522
25831	3.2386
25832	2.8239
25833	3.1769
25834	3.4701
25835	3.8408
25836	3.7405
25837	3.209
25838	3.0292
25839	0.55544
25840	0.65347
25841	0.37244
25842	0.30403
25843	0.79434
25844	0.77945
25845	0.58626
25846	0.66052
25847	0.39663
25848	0.29047
25849	0.27428
25850	0.40174
25851	3.4953
25852	2.698
25853	3.5761
25854	3.6419
25855	2.7188
25856	3.619
25857	2.8357
25858	3.6528
25859	4.0732
25860	3.6583
25861	3.6222
25862	3.8132
25863	2.8889
25864	3.6817
25865	4.5976
25866	4.9856
25867	6.3012
25868	4.7174
25869	6.0395
25870	4.2734
25871	6.5872
25872	5.4191
25873	6.0126
25874	3.8266
25875	4.3569
25876	4.076
25877	6.2323
25878	5.5765
25879	5.0727
25880	6.5641
25881	6.4873
25882	4.0664
25883	4.2856
25884	4.3376
25885	4.5906
25886	2.2377
25887	0.81386
25888	1.2704
25889	1.9145
25890	1.997
25891	1.2815
25892	0.56391
25893	1.4875
25894	1.9787
25895	2.2036
25896	2.6355
25897	7.9382
25898	8.253
25899	8.1414
25900	7.5182
25901	7.0696
25902	9.3437
25903	4.4465
25904	4.414
25905	7.5577
25906	6.0838
25907	7.4649
25908	6.0359
25909	2.679
25910	2.7508
25911	3.0806
25912	3.1934
25913	4.2003
25914	3.6148
25915	3.2708
25916	3.9517
25917	3.3172
25918	3.3162
25919	3.4242
25920	3.5787
25921	4.1951
25922	3.943
25923	4.8136
25924	4.9487
25925	1.8508
25926	1.1062
25927	0.88032
25928	2.0773
25929	2.0158
25930	1.874
25931	1.6388
25932	1.5483
25933	1.2674
25934	1.985
25935	1.9771
25936	1.988
25937	2.0888
25938	2.1247
25939	2.6766
25940	0.9666
25941	0.58798
25942	0.546
25943	0.66459
25944	0.85314
25945	0.68476
25946	0.76582
25947	0.85077
25948	0.76586
25949	0.84888
25950	1.4201
25951	1.5861
25952	1.5356
25953	1.5508
25954	1.7658
25955	1.8063
25956	1.6736
25957	1.757
25958	1.747
25959	0.73913
25960	0.96832
25961	0.63758
25962	0.7947
25963	0.83633
25964	0.68004
25965	0.61622
25966	3.0486
25967	2.8131
25968	3.1754
25969	2.0424
25970	2.4262
25971	2.4749
25972	2.7842
25973	1.8318
25974	1.8536
25975	3.3536
25976	3.3212
25977	2.402
25978	2.6292
25979	2.1432
25980	2.3083
25981	2.8036
25982	2.6146
25983	2.1244
25984	2.3591
25985	2.5683
25986	4.2639
25987	4.4907
25988	3.9704
25989	4.1676
25990	3.0947
25991	2.8073
25992	3.4291
25993	4.0321
25994	3.7903
25995	2.7743
25996	3.1618
25997	2.8213
25998	3.1123
25999	4.3903
26000	3.1998
26001	4.002
26002	4.6461
26003	3.4369
26004	1.0958
26005	0.9791
26006	0.74683
26007	0.61517
26008	0.73698
26009	0.84717
26010	0.75337
26011	0.68166
26012	2.8572
26013	2.792
26014	3.106
26015	3.1661
26016	3.1025
26017	2.7751
26018	3.0588
26019	3.3857
26020	3.6408
26021	3.7814
26022	2.5348
26023	2.1998
26024	0.46739
26025	0.56976
26026	0.46571
26027	0.16853
26028	0.1939
26029	0.26268
26030	2.337
26031	1.9082
26032	2.1667
26033	2.292
26034	2.2484
26035	4.346
26036	4.3153
26037	4.3091
26038	4.5969
26039	5.5815
26040	4.453
26041	4.457
26042	5.1572
26043	5.2976
26044	5.0171
26045	5.3744
26046	5.8961
26047	0.57432
26048	0.35158
26049	0.19134
26050	0.30973
26051	0.47293
26052	0.45562
26053	0.48217
26054	0.25066
26055	0.11901
26056	7.8487e-002
26057	0.42123
26058	0.18887
26059	6.3171
26060	6.093
26061	6.4099
26062	5.2943
26063	5.0799
26064	6.3392
26065	5.6126
26066	5.7596
26067	6.1015
26068	5.0529
26069	5.6458
26070	6.3196
26071	6.3188
26072	6.1118
26073	6.2461
26074	5.8332
26075	3.2275
26076	2.8447
26077	0.77986
26078	0.6535
26079	0.71049
26080	0.58581
26081	0.44881
26082	0.48421
26083	0.59859
26084	0.56048
26085	0.37966
26086	0.44247
26087	5.1425
26088	4.7556
26089	4.7315
26090	2.1277
26091	2.1896
26092	2.1321
26093	1.8646
26094	1.679
26095	1.8081
26096	1.8413
26097	2.4677
26098	2.573
26099	0.69174
26100	0.63031
26101	0.62486
26102	0.62863
26103	0.56097
26104	0.4538
26105	0.49519
26106	4.5983
26107	4.9004
26108	4.9184
26109	12.932
26110	12.965
26111	13.703
26112	12.24
26113	12.905
26114	13.841
26115	13.689
26116	13.045
26117	13.06
26118	12.357
26119	12.252
26120	14.181
26121	12.295
26122	11.89
26123	5.0589
26124	3.5854
26125	5.4463
26126	5.3178
26127	3.5754
26128	4.694
26129	2.699
26130	3.995
26131	4.1251
26132	4.3838
26133	1.193
26134	1.1634
26135	1.2531
26136	1.3027
26137	1.2487
26138	2.245
26139	2.0104
26140	1.6441
26141	2.5432
26142	2.2658
26143	0.70137
26144	0.6953
26145	0.63923
26146	0.53099
26147	0.45501
26148	0.55559
26149	0.60838
26150	0.65641
26151	0.6925
26152	0.77858
26153	0.75645
26154	0.70774
26155	1.5938
26156	1.5955
26157	1.5384
26158	1.4868
26159	1.6748
26160	0.65453
26161	0.74279
26162	1.3169
26163	1.4049
26164	1.4168
26165	1.5273
26166	4.3612
26167	4.7325
26168	2.7843
26169	2.4963
26170	1.9195
26171	3.2889
26172	4.8749
26173	0.75993
26174	0.95598
26175	0.85496
26176	1.0161
26177	0.81752
26178	0.68239
26179	1.1481
26180	0.72194
26181	7.242
26182	7.014
26183	7.0142
26184	7.2432
26185	7.7283
26186	7.9352
26187	0.75089
26188	0.71149
26189	0.41287
26190	0.61895
26191	0.40456
26192	0.35395
26193	0.45822
26194	0.44026
26195	0.33937
26196	0.37968
26197	0.42067
26198	0.69273
26199	0.73039
26200	3.2737
26201	3.6749
26202	3.4493
26203	3.5384
26204	3.9123
26205	2.8724
26206	3.2245
26207	2.5234
26208	2.7134
26209	2.6525
26210	2.7863
26211	3.093
26212	3.0357
26213	2.5025
26214	2.6397
26215	0.41148
26216	0.40291
26217	1.8785
26218	1.7208
26219	0.63637
26220	0.89971
26221	1.4937
26222	1.2709
26223	1.4234
26224	0.55279
26225	0.67947
26226	0.69303
26227	0.54613
26228	0.91381
26229	1.1692
26230	1.8967
26231	3.0388
26232	2.4669
26233	2.5007
26234	2.8651
26235	2.8226
26236	0.64858
26237	0.74643
26238	0.66662
26239	0.52418
26240	2.465
26241	2.4117
26242	2.2274
26243	2.366
26244	0.81967
26245	1.0195
26246	1.2104
26247	0.97906
26248	1.4151
26249	4.4032
26250	4.661
26251	6.0184
26252	5.4959
26253	6.573
26254	8.7836
26255	2.8002
26256	4.5178
26257	4.4548
26258	3.5194
26259	2.784
26260	3.0119
26261	3.2295
26262	5.4356
26263	5.5076
26264	6.4302
26265	7.1472
26266	6.8841
26267	6.11
26268	5.602
26269	3.5945
26270	4.7527
26271	3.0037
26272	3.0691
26273	4.3959
26274	5.27
26275	10.328
26276	9.6964
26277	10.438
26278	9.8422
26279	9.7614
26280	10.06
26281	10.352
26282	9.686
26283	10.304
26284	9.8621
26285	9.975
26286	9.2681
26287	9.683
26288	10.067
26289	10.356
26290	10.06
26291	6.6371
26292	6.2209
26293	6.2331
26294	5.383
26295	4.366
26296	7.1294
26297	5.2526
26298	6.5621
26299	5.0277
26300	3.866
26301	7.0668
26302	7.06
26303	6.9252
26304	7.0158
26305	6.1149
26306	6.1291
26307	7.3313
26308	8.7312
26309	4.8591
26310	4.6684
26311	4.9906
26312	5.5852
26313	2.3743
26314	2.377
26315	2.3805
26316	2.2267
26317	2.2442
26318	2.5577
26319	2.7207
26320	2.7969
26321	2.8569
26322	2.9588
26323	2.7895
26324	2.1904
26325	2.5312
26326	3.2759
26327	0.78968
26328	3.0164
26329	3.5603e-002
26330	3.0239e-002
26331	2.7669e-002
26332	3.3559e-002
26333	4.322e-002
26334	3.3658e-002
26335	6.8722
26336	6.9767
26337	7.1006
26338	7.2232
26339	6.5693
26340	6.8609
26341	0.20297
26342	0.22332
26343	0.20217
26344	0.12801
26345	0.13953
26346	0.10142
26347	0.2277
26348	0.17167
26349	0.1126
26350	0.13151
26351	0.19153
26352	7.7714
26353	6.4825
26354	5.5102
26355	4.632
26356	7.8924
26357	6.0671
26358	7.6446
26359	3.1196
26360	3.0264
26361	3.1068
26362	2.4138
26363	0.49229
26364	0.84885
26365	0.85775
26366	0.73203
26367	0.89698
26368	0.77388
26369	0.4556
26370	0.47554
26371	0.65844
26372	0.67603
26373	9.0252e-002
26374	0.16541
26375	5.9308e-002
26376	7.3118e-002
26377	7.7061e-002
26378	0.10937
26379	4.4518e-002
26380	1.1434
26381	1.08
26382	1.1502
26383	1.0299
26384	1.1436
26385	1.0211
26386	1.0992
26387	0.3665
26388	0.14984
26389	0.18031
26390	0.23675
26391	0.2851
26392	0.20647
26393	0.30552
26394	0.10861
26395	0.10074
26396	0.15272
26397	4.1675
26398	3.1632
26399	4.5057
26400	4.694
26401	4.0414
26402	4.7001
26403	5.9729
26404	6.6965
26405	6.5859
26406	5.7524
26407	5.5415
26408	5.0214
26409	2.5448
26410	2.4891
26411	2.9579
26412	3.5013
26413	2.9518
26414	2.7004
26415	1.3862
26416	1.2538
26417	1.3014
26418	1.9838
26419	1.447
26420	1.6873
26421	1.1759
26422	0.97525
26423	0.17834
26424	0.19769
26425	0.14025
26426	0.22557
26427	0.17621
26428	0.17289
26429	0.12827
26430	8.5658e-002
26431	1.0122
26432	2.2689
26433	2.0611
26434	0.88192
26435	0.93335
26436	1.7331
26437	2.3705
26438	1.8319
26439	2.6463
26440	0.97993
26441	1.5217
26442	1.4531
26443	2.0459
26444	2.4302
26445	2.6508
26446	4.0738
26447	2.3765
26448	2.8621
26449	2.8813
26450	3.0239
26451	2.2178
26452	2.0282
26453	2.9102
26454	2.3282
26455	2.7252
26456	0.67454
26457	0.81344
26458	0.6382
26459	0.59598
26460	0.67206
26461	0.70672
26462	0.61824
26463	0.69514
26464	0.65552
26465	0.71924
26466	0.69893
26467	0.62725
26468	0.63328
26469	1.7084
26470	1.9435
26471	3.3908
26472	2.7596
26473	3.1171
26474	3.8511
26475	2.7786
26476	1.735
26477	2.1076
26478	3.3764
26479	3.0482
26480	2.6664
26481	3.6333
26482	3.9448
26483	3.8537
26484	4.3413
26485	4.9203
26486	3.0591
26487	2.7017
26488	3.5249
26489	3.416
26490	3.3686
26491	3.0905
26492	2.914
26493	1.359
26494	2.2641
26495	3.0711
26496	2.9906
26497	2.2365
26498	1.9774
26499	2.5579
26500	2.5229
26501	2.1747
26502	2.0007
26503	0.55433
26504	0.57464
26505	0.54564
26506	0.77481
26507	0.72415
26508	0.57471
26509	0.68617
26510	0.52578
26511	0.6286
26512	0.62965
26513	0.49388
26514	0.51055
26515	1.4401
26516	1.017
26517	2.2106
26518	1.9444
26519	1.2222
26520	1.8878
26521	0.63076
26522	1.4594
26523	1.3269
26524	0.50584
26525	0.70881
26526	0.74281
26527	0.69456
26528	0.63391
26529	0.66238
26530	0.77207
26531	0.86491
26532	0.59004
26533	0.38024
26534	0.4526
26535	0.44516
26536	0.4361
26537	0.81081
26538	0.70167
26539	0.54239
26540	4.7956
26541	5.1013
26542	5.8767
26543	15.04
26544	15.379
26545	15.406
26546	12.502
26547	11.078
26548	6.9853
26549	6.9438
26550	4.3248
26551	6.6489
26552	5.6444
26553	5.0745
26554	5.3685
26555	6.1536
26556	1.582
26557	1.6323
26558	4.5111
26559	3.7497
26560	2.9249
26561	4.5611
26562	4.5123
26563	4.6437
26564	3.6468
26565	4.2551
26566	3.466
26567	3.0667
26568	2.9388
26569	2.3104
26570	0.82403
26571	0.74734
26572	0.59258
26573	0.71019
26574	0.99435
26575	0.60054
26576	0.7828
26577	1.3362
26578	1.5453
26579	1.1724
26580	0.38792
26581	0.24601
26582	0.37932
26583	0.26007
26584	0.20245
26585	0.17751
26586	0.77572
26587	0.97414
26588	0.26462
26589	0.32049
26590	0.57401
26591	0.2819
26592	0.3483
26593	0.28009
26594	0.26827
26595	0.54096
26596	0.41494
26597	0.53491
26598	0.29676
26599	0.70868
26600	0.63578
26601	0.55206
26602	0.61994
26603	0.65518
26604	0.56397
26605	0.43859
26606	0.51958
26607	0.44948
26608	0.44095
26609	0.29009
26610	2.9996
26611	4.2769
26612	3.7233
26613	2.2953
26614	2.3994
26615	3.8922
26616	3.0811
26617	2.6654
26618	3.3518
26619	3.0756
26620	4.3396
26621	3.8505
26622	2.7446
26623	3.4323
26624	4.7712
26625	4.2028
26626	2.6296
26627	3.1117
26628	3.0332
26629	4.6724
26630	4.1512
26631	2.6918
26632	2.8065
26633	6.5616
26634	5.6055
26635	8.0006
26636	10.13
26637	5.1393
26638	8.8134
26639	9.5012
26640	10.935
26641	8.5113
26642	6.919
26643	5.9912
26644	9.2281
26645	12.178
26646	0.26038
26647	0.22518
26648	0.28788
26649	0.38907
26650	0.42458
26651	0.29858
26652	0.35553
26653	0.63154
26654	0.79615
26655	0.30269
26656	0.90013
26657	0.44851
26658	0.70539
26659	0.46994
26660	0.23627
26661	0.14973
26662	0.21976
26663	0.48782
26664	0.40693
26665	0.39315
26666	0.38451
26667	0.35518
26668	0.33341
26669	0.34204
26670	0.43534
26671	0.39403
26672	0.59566
26673	0.57271
26674	0.67097
26675	0.36175
26676	0.29508
26677	0.33412
26678	0.25796
26679	2.9988
26680	3.0584
26681	2.5228
26682	3.516
26683	3.2223
26684	2.5627
26685	3.2539
26686	2.7902
26687	3.8282
26688	2.803
26689	2.771
26690	2.8491
26691	3.0279
26692	2.5824
26693	3.2615
26694	3.39
26695	3.2449
26696	0.9717
26697	2.6267
26698	2.3533
26699	1.6065
26700	0.72878
26701	1.0207
26702	2.4237
26703	0.75243
26704	0.77187
26705	0.71017
26706	0.66628
26707	5.3041
26708	4.5712
26709	2.2779
26710	2.7295
26711	2.9147
26712	2.5507
26713	5.4408
26714	5.804
26715	6.279
26716	5.7194
26717	4.2527
26718	5.8463
26719	4.8788
26720	5.4104
26721	3.0496
26722	3.4019
26723	3.209
26724	2.9624
26725	2.5471
26726	2.1519
26727	1.7133
26728	2.5686
26729	2.8
26730	2.2476
26731	3.6739
26732	3.2758
26733	1.7185
26734	2.7383
26735	2.7064
26736	2.6495
26737	2.352
26738	2.353
26739	2.844
26740	2.3193
26741	2.3
26742	4.4634
26743	4.7841
26744	4.4187
26745	3.3141
26746	2.9032
26747	4.4552
26748	3.3422
26749	3.6508
26750	9.5739e-002
26751	9.9083e-002
26752	6.3
26753	6.3509
26754	5.7526
26755	5.1913
26756	5.022
26757	6.2323
26758	5.6245
26759	6.0756
26760	6.311
26761	6.2753
26762	5.823
26763	6.2444
26764	6.5257
26765	2.4811
26766	2.3978
26767	2.4146
26768	2.8134
26769	2.4778
26770	2.596
26771	2.6614
26772	2.7455
26773	2.98
26774	3.2626
26775	1.4087
26776	1.3946
26777	2.3823
26778	1.4505
26779	1.6545
26780	1.6827
26781	2.1583
26782	1.2588
26783	1.2969
26784	1.9087
26785	1.2688
26786	1.542
26787	0.85293
26788	0.8797
26789	2.2964
26790	2.1889
26791	2.5875
26792	2.0218
26793	2.3135
26794	2.2459
26795	2.1942
26796	6.7982
26797	6.4027
26798	5.8015
26799	6.0449
26800	5.7799
26801	7.1879
26802	5.4097
26803	5.9495
26804	5.2865
26805	6.3474
26806	6.6076
26807	5.6653
26808	6.1392
26809	5.8037
26810	4.7236
26811	5.0296
26812	2.8906
26813	1.0224
26814	2.9631
26815	0.78049
26816	2.9473
26817	1.9133
26818	2.1887
26819	2.6005
26820	1.5422
26821	2.7985
26822	2.727
26823	4.082
26824	4.3538
26825	3.6442
26826	4.0491
26827	2.8556
26828	4.2204
26829	3.3647
26830	3.3009
26831	2.8731
26832	3.6059
26833	4.7393
26834	4.3997
26835	4.0084
26836	1.2618
26837	0.5381
26838	3.0428
26839	3.626
26840	2.8905
26841	2.5953
26842	2.8918
26843	1.2911
26844	3.4838
26845	4.4321
26846	5.0753
26847	4.0249
26848	5.9235
26849	7.3154
26850	5.5549
26851	3.6429
26852	5.8191
26853	5.5739
26854	4.7679
26855	6.3005
26856	6.0327
26857	4.9561
26858	3.8802
26859	15.395
26860	14.186
26861	15.447
26862	14.023
26863	15.275
26864	15.127
26865	7.9826
26866	10.361
26867	8.5097
26868	7.3655
26869	4.595
26870	5.3429
26871	9.2484
26872	6.4202
26873	5.1388
26874	6.3917
26875	4.5357
26876	6.2335
26877	2.906
26878	4.2482
26879	3.0742
26880	3.6172
26881	4.1623
26882	3.5223
26883	2.6656
26884	3.9358
26885	3.7226
26886	3.1921
26887	2.846
26888	3.3989
26889	5.4596
26890	6.3199
26891	7.0597
26892	5.4602
26893	5.8922
26894	6.1248
26895	5.9924
26896	5.8734
26897	6.0744
26898	6.2075
26899	6.2217
26900	6.9728
26901	6.0091
26902	6.7677
26903	4.8226
26904	4.471
26905	3.8617
26906	2.5256
26907	3.4443
26908	2.005
26909	1.8247
26910	2.1915
26911	2.07
26912	1.699
26913	1.7685
26914	1.6716
26915	1.5619
26916	1.5937
26917	1.7625
26918	0.83558
26919	0.63624
26920	3.167
26921	1.2156
26922	3.0388
26923	3.162
26924	2.0937
26925	2.3703
26926	2.1915
26927	1.9291
26928	2.4934
26929	1.7244
26930	2.0866
26931	3.8553
26932	4.3779
26933	1.7307
26934	1.9949
26935	1.9345
26936	2.5812
26937	1.9467
26938	2.4515
26939	0.60763
26940	0.76336
26941	0.60486
26942	0.60106
26943	0.54562
26944	1.4893
26945	1.8746
26946	1.806
26947	1.831
26948	1.539
26949	1.3825
26950	1.3998
26951	2.5534
26952	2.7565
26953	2.6037
26954	2.0257
26955	1.8445
26956	2.795
26957	2.9814
26958	2.763
26959	2.3752
26960	0.6908
26961	0.65443
26962	0.68585
26963	0.74874
26964	0.71546
26965	0.7259
26966	0.72069
26967	0.84565
26968	0.64171
26969	0.63783
26970	0.72531
26971	0.52949
26972	0.52307
26973	0.3167
26974	0.50441
26975	0.21292
26976	0.39181
26977	0.24784
26978	5.3571
26979	5.5841
26980	5.4191
26981	5.1409
26982	5.5399
26983	5.0656
26984	5.2715
26985	5.0038
26986	0.96096
26987	0.88565
26988	0.86585
26989	0.83395
26990	0.59989
26991	0.72956
26992	0.61193
26993	0.25892
26994	0.28122
26995	1.4028
26996	2.8673
26997	1.6111
26998	2.2932
26999	1.8643
27000	1.5066
27001	0.31738
27002	0.30334
27003	0.28175
27004	0.44345
27005	0.31954
27006	0.2729
27007	0.54861
27008	0.48936
27009	3.1111
27010	3.0968
27011	2.8651
27012	3.1822
27013	3.2056
27014	3.2824
27015	2.3381
27016	2.9591
27017	3.0965
27018	2.4443
27019	2.4432
27020	2.3147
27021	2.7445
27022	2.7329
27023	3.231
27024	3.7696
27025	3.9971
27026	2.9881
27027	6.7496
27028	5.8766
27029	5.0982
27030	5.6176
27031	5.6346
27032	4.4886
27033	3.4696
27034	3.5095
27035	8.0944
27036	7.9361
27037	1.9928
27038	2.0275
27039	3.1856
27040	2.1663
27041	3.9064
27042	3.3315
27043	4.1183
27044	2.4752
27045	2.9934
27046	3.812
27047	4.1774
27048	2.7899
27049	3.0268
27050	9.4015
27051	11.465
27052	9.7961
27053	7.8973
27054	6.3286
27055	8.5835
27056	6.6805
27057	8.9858
27058	7.5819
27059	7.9055
27060	8.0884
27061	2.4192
27062	2.4782
27063	2.6803
27064	0.89253
27065	1.0229
27066	0.85722
27067	1.4641
27068	1.734
27069	1.8242
27070	2.0094
27071	2.0779
27072	2.0165
27073	2.2383
27074	2.2163
27075	2.1696
27076	0.57353
27077	0.50675
27078	0.69775
27079	0.78107
27080	0.6337
27081	0.75487
27082	0.57364
27083	0.34751
27084	0.279
27085	0.40292
27086	0.58971
27087	0.61251
27088	0.57794
27089	0.3145
27090	0.50024
27091	2.913
27092	2.5846
27093	2.2307
27094	3.0854
27095	3.6247
27096	3.49
27097	1.2831
27098	0.80921
27099	1.6376
27100	2.4625
27101	2.2941
27102	2.315
27103	1.6719
27104	1.2441
27105	2.651
27106	1.6832
27107	2.4357
27108	2.3192
27109	0.86143
27110	2.723
27111	1.4314
27112	1.4655
27113	1.88
27114	2.7645
27115	2.1951
27116	2.0708
27117	1.887
27118	2.9697
27119	3.4636
27120	3.6402
27121	2.9886
27122	2.79
27123	2.5852
27124	3.5465
27125	3.3847
27126	2.0291
27127	4.8782
27128	4.8782
27129	5.0668
27130	4.5711
27131	5.0657
27132	4.3229
27133	4.5563
27134	0.32104
27135	0.45744
27136	0.46458
27137	0.54586
27138	0.59766
27139	0.68744
27140	0.85415
27141	1.059
27142	1.2911
27143	1.3829
27144	1.022
27145	1.3263
27146	0.93121
27147	2.3121
27148	2.9516
27149	2.4634
27150	2.0461
27151	2.0046
27152	2.8533
27153	3.0684
27154	2.526
27155	2.4894
27156	3.1511
27157	4.0086
27158	3.5311
27159	3.3632
27160	3.7986
27161	4.1456
27162	3.1251
27163	3.2188
27164	4.4478
27165	4.0406
27166	3.1435
27167	4.4324
27168	4.53
27169	4.1116
27170	3.9441
27171	3.8192
27172	3.7997
27173	0.79787
27174	0.84354
27175	0.72426
27176	0.98807
27177	1.0461
27178	1.6464
27179	1.6238
27180	1.507
27181	1.7493
27182	1.9133
27183	0.55087
27184	0.33897
27185	0.49187
27186	0.38775
27187	0.40457
27188	0.21273
27189	0.29779
27190	0.37351
27191	0.30635
27192	0.28538
27193	0.22839
27194	7.1415
27195	7.5552
27196	7.1277
27197	7.716
27198	7.7617
27199	7.5571
27200	7.9044
27201	7.946
27202	7.9216
27203	7.7176
27204	7.7638
27205	7.9561
27206	0.85861
27207	0.92019
27208	0.93274
27209	0.76323
27210	0.76212
27211	0.81472
27212	0.70156
27213	0.701
27214	0.67768
27215	0.66195
27216	2.9689
27217	3.3384
27218	2.8342
27219	2.9093
27220	2.8711
27221	3.0835
27222	2.8121
27223	3.3526
27224	2.9116
27225	3.2199
27226	2.9789
27227	3.0198
27228	2.7354
27229	2.3734
27230	2.4921
27231	3.8613
27232	2.7511
27233	2.6865
27234	2.6747
27235	3.2296
27236	2.5664
27237	2.5707
27238	2.443
27239	2.5372
27240	11.223
27241	10.824
27242	11.771
27243	11.806
27244	11.773
27245	11.23
27246	10.799
27247	4.8912
27248	5.3935
27249	4.6309
27250	2.8817
27251	3.7572
27252	3.5452
27253	3.214
27254	3.9521
27255	3.7684
27256	4.0126
27257	3.0474
27258	2.5775
27259	2.2399
27260	1.9976
27261	2.4459
27262	2.3291
27263	2.3704
27264	0.32692
27265	0.23043
27266	0.14485
27267	9.9946e-002
27268	2.7399
27269	2.5402
27270	1.8062
27271	2.6724
27272	2.3553
27273	2.1893
27274	1.3767
27275	1.3583
27276	1.6462
27277	1.4324
27278	2.035
27279	2.611
27280	2.6754
27281	2.4349
27282	2.6434
27283	2.3446
27284	0.73516
27285	0.77901
27286	3.1488
27287	3.1688
27288	2.9396
27289	2.0331
27290	2.0546
27291	3.2372
27292	3.1263
27293	3.029
27294	2.0136
27295	1.6447
27296	2.8604
27297	2.7958
27298	2.7813
27299	3.129
27300	3.4817
27301	3.429
27302	3.4724
27303	3.3198
27304	3.541
27305	2.55
27306	1.8672
27307	1.7485
27308	2.4959
27309	2.7347
27310	0.89745
27311	1.8439
27312	2.2903
27313	2.5386
27314	2.1672
27315	2.0965
27316	1.9322
27317	1.9229
27318	1.7268
27319	1.5791
27320	2.2047
27321	2.2253
27322	2.1496
27323	2.088
27324	2.314
27325	2.2247
27326	2.1957
27327	2.3219
27328	2.3957
27329	2.4795
27330	2.5699
27331	2.5024
27332	2.4964
27333	2.5586
27334	2.4955
27335	2.6956
27336	2.644
27337	2.6648
27338	0.62229
27339	0.72235
27340	0.84031
27341	0.81249
27342	0.72856
27343	0.75905
27344	1.0086
27345	1.3374
27346	0.11188
27347	8.1233e-002
27348	3.5125e-002
27349	3.9746e-002
27350	7.1335e-002
27351	0.16929
27352	4.731e-002
27353	6.087e-002
27354	2.9696e-002
27355	3.3848
27356	4.9861
27357	4.4495
27358	3.3637
27359	4.1543
27360	3.8945
27361	4.9196
27362	5.2993
27363	3.3825
27364	0.71502
27365	0.73921
27366	0.62952
27367	0.55595
27368	0.5885
27369	0.61443
27370	0.53912
27371	0.55067
27372	0.50271
27373	0.49184
27374	0.47959
27375	1.8101
27376	1.6779
27377	1.8715
27378	1.9905
27379	1.7019
27380	1.2533
27381	1.438
27382	1.666
27383	1.7084
27384	1.8773
27385	1.6538
27386	1.6621
27387	1.6498
27388	1.5368
27389	1.1063
27390	1.6247
27391	1.7312
27392	3.1419
27393	2.9377
27394	3.2879
27395	3.0378
27396	2.8415
27397	1.505
27398	2.6397
27399	1.916
27400	1.9097
27401	1.9796
27402	2.223
27403	3.0168
27404	1.5543
27405	1.3731
27406	3.768
27407	3.6276
27408	5.7549
27409	4.1804
27410	3.7561
27411	3.4252
27412	4.6412
27413	5.7884
27414	5.8258
27415	4.5636
27416	4.7081
27417	4.0329
27418	3.8545
27419	5.3135
27420	4.7484
27421	6.8066
27422	6.4001
27423	6.0413
27424	5.7902
27425	6.597
27426	7.184
27427	5.8107
27428	5.2925
27429	5.4164
27430	6.5965
27431	6.3547
27432	4.7365
27433	5.6801
27434	4.3094
27435	4.4844
27436	4.4366
27437	4.3504
27438	5.0078
27439	3.6965
27440	3.2457
27441	5.1657
27442	1.4144
27443	1.364
27444	1.4522
27445	1.6085
27446	1.3929
27447	1.3448
27448	1.254
27449	5.921
27450	4.1311
27451	5.395
27452	5.7647
27453	5.4781
27454	6.0167
27455	4.8777
27456	5.3327
27457	4.6187
27458	4.0304
27459	5.6181
27460	5.1788
27461	5.2414
27462	4.6979
27463	3.9849
27464	4.6069
27465	4.7918
27466	3.9216
27467	2.2521
27468	2.9417
27469	2.7614
27470	2.2888
27471	2.6274
27472	2.7452
27473	2.8508
27474	2.8321
27475	2.8573
27476	2.9873
27477	2.8569
27478	2.5243
27479	2.6022
27480	2.6295
27481	2.8055
27482	2.8226
27483	2.645
27484	2.6808
27485	2.5888
27486	5.5305
27487	3.9775
27488	7.1283
27489	5.1473
27490	9.3832
27491	3.7575
27492	4.7542
27493	4.1612
27494	4.8387
27495	8.1909
27496	4.5819
27497	5.8012
27498	2.3988
27499	2.4534
27500	2.57
27501	2.699
27502	2.6089
27503	2.4095
27504	2.5773
27505	2.7102
27506	2.8053
27507	2.7893
27508	2.7622
27509	14.674
27510	14.617
27511	15.199
27512	15.302
27513	13.11
27514	13.008
27515	1.3223
27516	1.3209
27517	1.4021
27518	1.1853
27519	0.69829
27520	0.70077
27521	0.73881
27522	0.68805
27523	0.7528
27524	0.85164
27525	0.83382
27526	0.6847
27527	0.65103
27528	0.82938
27529	0.71527
27530	0.65252
27531	0.61203
27532	6.7747
27533	5.8391
27534	6.976
27535	4.0734
27536	4.5739
27537	3.6673
27538	5.8496
27539	5.4634
27540	5.0668
27541	7.3633
27542	7.1825
27543	6.9046
27544	7.5301
27545	6.7058
27546	6.9804
27547	6.5463
27548	6.6571
27549	6.7774
27550	6.7569
27551	6.8875
27552	6.7323
27553	6.8462
27554	6.66
27555	1.8463
27556	1.6637
27557	1.7318
27558	1.0752
27559	2.2142
27560	1.3228
27561	1.7924
27562	1.7926
27563	2.1283
27564	2.0523
27565	0.21316
27566	0.34125
27567	0.17576
27568	2.9434e-002
27569	2.4119e-002
27570	6.9868e-002
27571	3.1576e-002
27572	4.2111e-002
27573	3.5997e-002
27574	2.7701e-002
27575	2.2764
27576	2.3213
27577	2.9388
27578	3.4567
27579	2.2727
27580	2.2448
27581	2.2343
27582	2.8262
27583	2.7698
27584	2.3124
27585	3.9412
27586	4.08
27587	2.2496
27588	4.3829
27589	2.546
27590	3.9728
27591	3.0121
27592	3.8269
27593	2.965
27594	2.6546
27595	2.7891
27596	3.0362
27597	2.5757
27598	1.8905
27599	1.8267
27600	1.6337
27601	2.1137
27602	2.0422
27603	1.9882
27604	1.6829
27605	1.6116
27606	2.2938
27607	2.3341
27608	1.366
27609	1.5766
27610	1.5664
27611	1.3718
27612	1.0414
27613	0.87789
27614	2.7555
27615	2.2349
27616	1.843
27617	0.92736
27618	2.016
27619	2.4776
27620	2.5795
27621	6.0689
27622	6.2605
27623	4.9541
27624	5.1464
27625	7.9694
27626	7.6957
27627	11.038
27628	9.5902
27629	10.279
27630	9.6135
27631	11.024
27632	0.58468
27633	0.3813
27634	0.50684
27635	0.5604
27636	0.59697
27637	0.6923
27638	0.7458
27639	0.3504
27640	0.30141
27641	2.8022
27642	3.475
27643	3.2662
27644	2.4181
27645	2.6432
27646	3.4231
27647	2.9961
27648	2.3769
27649	2.6138
27650	4.2207
27651	3.4124
27652	0.31813
27653	0.33623
27654	0.13706
27655	0.26
27656	0.24882
27657	0.20065
27658	0.16814
27659	0.12165
27660	0.13284
27661	0.17415
27662	0.10278
27663	0.11208
27664	0.11947
27665	0.1004
27666	7.6047e-002
27667	5.5083
27668	5.1484
27669	5.1697
27670	5.5867
27671	5.0435
27672	5.3279
27673	3.9688
27674	5.0274
27675	7.1466
27676	7.1454
27677	7.6041
27678	7.7989
27679	7.5967
27680	7.7925
27681	7.6023
27682	7.9913
27683	7.7886
27684	7.9836
27685	7.7906
27686	7.9862
27687	7.9921
27688	7.7973
27689	0.49759
27690	0.37993
27691	0.40096
27692	0.3558
27693	0.33672
27694	0.22566
27695	0.27448
27696	0.14295
27697	0.10514
27698	0.1336
27699	0.1205
27700	0.12147
27701	4.3768
27702	4.4589
27703	4.5952
27704	5.8929
27705	4.4303
27706	4.4183
27707	4.2388
27708	5.413
27709	5.0776
27710	6.0343
27711	5.8725
27712	5.3691
27713	5.9526
27714	5.6539
27715	5.0702
27716	5.2507
27717	2.5509
27718	2.5675
27719	3.0884
27720	5.0604
27721	5.6562
27722	4.2594
27723	4.7156
27724	2.5834
27725	3.2921
27726	3.6737
27727	0.58554
27728	4.0788
27729	1.4885
27730	1.3122
27731	4.1913
27732	3.0286
27733	3.3776
27734	1.3367
27735	1.756
27736	1.7191
27737	1.5034
27738	1.606
27739	1.5808
27740	1.4361
27741	1.914
27742	1.3158
27743	1.5233
27744	1.5674
27745	1.3065
27746	1.1835
27747	2.9012
27748	3.0127
27749	3.7747
27750	4.0523
27751	4.4802
27752	2.8696
27753	4.597
27754	4.4107
27755	6.6401
27756	6.0818
27757	5.88
27758	4.2937
27759	6.387
27760	6.6063
27761	4.9998
27762	5.3022
27763	5.8235
27764	4.7894
27765	5.0898
27766	6.0779
27767	4.4587
27768	3.8447
27769	3.6654
27770	4.244
27771	4.8368
27772	3.6283
27773	3.7887
27774	6.7533
27775	5.3174
27776	5.8068
27777	6.792
27778	5.3992
27779	6.4535
27780	4.3861
27781	4.7618
27782	6.3794
27783	6.7022
27784	6.9267
27785	7.2799
27786	6.5273
27787	5.5929
27788	6.1994
27789	6.8935
27790	7.1989
27791	5.7232
27792	4.8001
27793	4.4737
27794	10.432
27795	10.433
27796	9.9141
27797	10.105
27798	9.9488
27799	10.252
27800	10.25
27801	10.105
27802	9.922
27803	9.9833
27804	10.15
27805	10.347
27806	10.15
27807	9.9607
27808	1.9129
27809	1.6245
27810	1.5726
27811	1.7866
27812	2.2601
27813	2.08
27814	2.8895
27815	2.1242
27816	2.6084
27817	4.3917
27818	3.5287
27819	4.5298
27820	2.6384
27821	3.0901
27822	4.1095
27823	3.2507
27824	4.2026
27825	3.3741
27826	3.1344
27827	2.6563
27828	3.7186
27829	2.9109
27830	4.2587
27831	3.5666
27832	4.5236
27833	4.0102
27834	3.4554
27835	4.2253
27836	3.7905
27837	3.3129
27838	2.0578
27839	2.3086
27840	2.7691
27841	2.4875
27842	3.2332
27843	4.5433
27844	4.025
27845	4.0922
27846	3.5015
27847	2.8888
27848	2.5775
27849	2.9443
27850	1.7902
27851	2.0952
27852	3.555
27853	3.8666
27854	2.1606
27855	2.3368
27856	0.84099
27857	0.71093
27858	0.91766
27859	0.42999
27860	0.61573
27861	0.43845
27862	0.44408
27863	0.62956
27864	0.86403
27865	0.87037
27866	0.76585
27867	0.76597
27868	0.76748
27869	0.65715
27870	0.55319
27871	0.56194
27872	0.55783
27873	4.6414
27874	4.0485
27875	4.5471
27876	3.6212
27877	4.265
27878	3.255
27879	4.3193
27880	3.8286
27881	4.152
27882	3.6923
27883	5.3056
27884	5.5445
27885	7.0806
27886	10.372
27887	9.6809
27888	10.484
27889	9.8646
27890	9.2381
27891	9.6507
27892	9.6955
27893	10.296
27894	9.8469
27895	10.062
27896	10.057
27897	10.301
27898	9.9784
27899	9.7614
27900	10.36
27901	10.068
27902	3.5294
27903	3.1732
27904	4.2886
27905	3.6852
27906	4.6672
27907	5.3478
27908	5.3302
27909	4.1586
27910	1.0578
27911	0.96703
27912	1.1106
27913	1.0423
27914	0.58234
27915	0.59482
27916	0.66858
27917	0.80482
27918	0.53349
27919	0.4394
27920	0.32646
27921	0.39047
27922	0.6031
27923	0.57016
27924	0.37791
27925	0.41493
27926	0.15354
27927	0.15319
27928	0.15951
27929	0.13026
27930	9.4999e-002
27931	0.12628
27932	9.2296e-002
27933	0.18716
27934	0.16381
27935	5.6539e-002
27936	8.7188e-002
27937	6.2595e-002
27938	7.0446e-002
27939	0.20509
27940	0.19015
27941	0.23079
27942	0.19499
27943	6.4615e-002
27944	2.9881e-002
27945	0.32182
27946	0.28927
27947	0.18593
27948	9.581e-002
27949	9.4316e-002
27950	0.18366
27951	7.388e-002
27952	6.415e-002
27953	0.32014
27954	0.39181
27955	0.30427
27956	6.8985e-002
27957	3.6193e-002
27958	0.61555
27959	0.69005
27960	0.89424
27961	0.69929
27962	0.87585
27963	0.91825
27964	0.79261
27965	0.7813
27966	3.0654
27967	3.297
27968	2.9063
27969	2.4729
27970	2.7984
27971	2.6756
27972	2.7285
27973	3.0393
27974	2.9959
27975	3.1793
27976	4.7026
27977	4.3012
27978	3.1502
27979	3.0213
27980	2.9426
27981	2.9585
27982	3.0662
27983	2.9634
27984	1.6822
27985	1.5466
27986	1.1218
27987	1.3623
27988	1.8587
27989	1.793
27990	1.6759
27991	1.6475
27992	2.7769
27993	2.2024
27994	2.2031
27995	2.2417
27996	2.3983
27997	2.5001
27998	2.3569
27999	2.3322
28000	1.7601
28001	1.6287
28002	2.5562
28003	1.909
28004	2.3856
28005	2.8313
28006	2.6138
28007	2.8862
28008	2.777
28009	3.2199
28010	3.1046
28011	3.0205
28012	2.8814
28013	3.1258
28014	3.733
28015	3.5619
28016	3.9143
28017	3.2266
28018	2.8022
28019	0.98643
28020	1.1351
28021	0.59462
28022	0.59449
28023	1.2974
28024	1.5715
28025	2.9418
28026	2.709
28027	1.8727
28028	2.7699
28029	1.9625
28030	2.5929
28031	1.5003
28032	0.63248
28033	0.95214
28034	0.61187
28035	0.77754
28036	2.5951
28037	2.996
28038	3.2365
28039	4.1442e-002
28040	0.53153
28041	5.6761e-002
28042	0.32583
28043	0.4084
28044	0.20225
28045	9.3784e-002
28046	0.21286
28047	0.10227
28048	0.7754
28049	0.74912
28050	0.83473
28051	0.92118
28052	0.88017
28053	0.27217
28054	0.20526
28055	0.25554
28056	0.29081
28057	0.73268
28058	0.92846
28059	7.3907
28060	6.4589
28061	7.2076
28062	5.0555
28063	6.6275
28064	7.4591
28065	9.6667
28066	8.582
28067	0.9585
28068	0.8384
28069	1.0677
28070	0.62533
28071	0.51325
28072	2.3219
28073	2.556
28074	2.5648
28075	2.7534
28076	2.2049
28077	2.405
28078	2.5974
28079	3.8119
28080	3.4905
28081	3.4853
28082	3.2345
28083	2.8624
28084	2.7114
28085	2.1281
28086	2.8429
28087	3.179
28088	2.8878
28089	3.6395
28090	2.3374
28091	2.611
28092	3.5786
28093	3.5606
28094	4.1919
28095	3.2877
28096	3.8505
28097	3.2948
28098	3.4606
28099	0.4376
28100	0.59306
28101	0.65187
28102	0.39049
28103	0.49331
28104	0.33409
28105	0.42607
28106	0.39986
28107	0.58743
28108	0.30564
28109	0.33521
28110	0.33446
28111	0.49659
28112	0.65242
28113	3.2982
28114	3.5121
28115	4.1828
28116	2.8297
28117	3.1651
28118	4.4867
28119	4.0948
28120	3.0198
28121	2.0297
28122	2.5789
28123	2.8221
28124	2.6309
28125	2.1519
28126	1.996
28127	1.8993
28128	1.4156
28129	2.7035
28130	2.0782
28131	1.7824
28132	1.3496
28133	2.2624
28134	2.2895
28135	2.0288
28136	1.6743
28137	1.616
28138	1.2032
28139	0.99293
28140	0.75323
28141	0.78248
28142	0.95963
28143	1.0597
28144	1.5925
28145	1.6124
28146	2.0661
28147	2.1448
28148	2.1209
28149	2.2007
28150	1.9251
28151	1.8829
28152	2.0389
28153	2.1526
28154	6.8593e-002
28155	0.11588
28156	4.2505e-002
28157	0.42595
28158	0.59262
28159	0.54159
28160	0.25141
28161	0.298
28162	0.11673
28163	0.21921
28164	1.8
28165	2.1543
28166	2.8491
28167	2.9298
28168	3.3219
28169	2.2494
28170	1.8759
28171	2.0787
28172	2.2612
28173	2.1812
28174	2.4497
28175	2.3811
28176	2.4475
28177	3.4036
28178	2.9444
28179	3.1067
28180	3.1921
28181	3.354
28182	2.4488
28183	2.6044
28184	3.6595
28185	3.5287
28186	2.846
28187	3.0657
28188	6.6408e-002
28189	8.6492e-002
28190	0.19799
28191	0.30329
28192	0.25079
28193	0.41435
28194	12.493
28195	14.496
28196	13.155
28197	12.477
28198	22.047
28199	22.034
28200	17.29
28201	13.968
28202	13.15
28203	14.709
28204	13.951
28205	17.538
28206	18.652
28207	20.26
28208	21.506
28209	18.988
28210	16.967
28211	18.915
28212	15.073
28213	16.901
28214	18.976
28215	19.885
28216	14.927
28217	18.107
28218	19.531
28219	5.6266
28220	5.7251
28221	5.4217
28222	5.1506
28223	5.046
28224	5.432
28225	5.05
28226	3.7959
28227	3.8126
28228	4.2294
28229	4.2682
28230	4.6862
28231	4.3778
28232	4.2228
28233	4.333
28234	4.4076
28235	4.6167
28236	3.2774
28237	3.6214
28238	4.5811
28239	6.1722
28240	4.5838
28241	5.4971
28242	4.2368
28243	3.0242
28244	3.2439
28245	3.7058
28246	3.7707
28247	9.6083
28248	12.143
28249	9.1578
28250	10.595
28251	7.4223
28252	8.8469
28253	7.7708
28254	8.9244
28255	8.2021
28256	7.7837
28257	7.0895
28258	8.4497
28259	4.2488
28260	3.5743
28261	5.041
28262	5.2459
28263	5.0803
28264	6.8898
28265	6.2847
28266	4.7253
28267	3.4696
28268	3.5401
28269	13.368
28270	9.791
28271	13.056
28272	9.649
28273	10.949
28274	12.863
28275	12.872
28276	12.253
28277	12.684
28278	5.2252
28279	4.753
28280	4.6983
28281	5.4249
28282	5.1346
28283	5.1707
28284	5.9303
28285	7.0186
28286	8.7488
28287	8.6362
28288	6.5764
28289	5.4542
28290	7.7057
28291	10.66
28292	7.3059
28293	7.1148
28294	7.2711
28295	5.1208
28296	2.5789
28297	2.7612
28298	2.9246
28299	2.6951
28300	2.9811
28301	3.0248
28302	3.0177
28303	5.6116e-002
28304	4.782e-002
28305	5.9379e-002
28306	5.4791e-002
28307	2.9387e-002
28308	5.8299e-002
28309	9.9002e-002
28310	4.4761e-002
28311	3.7195e-002
28312	1.5786e-002
28313	0.13988
28314	0.29766
28315	0.23083
28316	0.11275
28317	2.5999e-002
28318	0.39206
28319	1.5534
28320	1.4513
28321	2.9158
28322	2.26
28323	2.7858
28324	2.8692
28325	2.2896
28326	2.6182
28327	2.716
28328	2.7527
28329	2.5638
28330	2.5053
28331	2.544
28332	2.1768
28333	1.4491
28334	1.3016
28335	1.2747
28336	1.1613
28337	1.7889
28338	1.6172
28339	1.4695
28340	1.417
28341	1.5868
28342	0.61814
28343	0.67168
28344	0.55322
28345	0.78281
28346	0.7272
28347	0.96016
28348	0.63971
28349	0.45371
28350	0.47032
28351	0.46449
28352	0.39191
28353	0.26296
28354	0.15633
28355	0.18466
28356	0.37582
28357	0.36692
28358	0.20374
28359	0.22404
28360	0.23775
28361	0.26016
28362	0.23937
28363	0.19245
28364	0.4554
28365	0.488
28366	0.36508
28367	0.58018
28368	0.63297
28369	0.53586
28370	0.52248
28371	0.64397
28372	0.65767
28373	0.53753
28374	0.58403
28375	0.64893
28376	2.9953
28377	3.4875
28378	2.7711
28379	2.333
28380	2.6647
28381	4.2287
28382	2.3271
28383	1.8358
28384	1.5487
28385	3.0036
28386	3.4197
28387	4.2214
28388	1.826
28389	2.3067
28390	2.3098
28391	2.6322
28392	2.185
28393	0.80735
28394	1.0194
28395	0.68426
28396	1.2295
28397	2.0331
28398	0.53216
28399	0.49885
28400	0.52605
28401	0.58831
28402	0.56138
28403	0.53997
28404	0.54872
28405	0.51317
28406	0.53525
28407	0.66886
28408	0.62282
28409	0.65895
28410	0.71084
28411	0.70057
28412	0.61451
28413	0.58885
28414	0.65348
28415	0.61372
28416	2.7535
28417	2.9207
28418	2.8752
28419	2.8121
28420	2.403
28421	2.3359
28422	2.0379
28423	2.5676e-002
28424	2.9108e-002
28425	3.531e-002
28426	3.6416e-002
28427	3.9937e-002
28428	3.1804e-002
28429	3.1674e-002
28430	4.0544e-002
28431	1.6678
28432	1.7614
28433	2.0619
28434	2.1569
28435	1.4543
28436	1.6873
28437	1.8631
28438	1.9726
28439	1.9722
28440	1.815
28441	1.5016
28442	2.7401
28443	0.65976
28444	2.8755
28445	0.45433
28446	0.35924
28447	2.0021
28448	2.6721
28449	2.297
28450	6.7272
28451	6.1726
28452	6.9919
28453	4.6657
28454	5.0793
28455	5.3572
28456	7.3633
28457	6.7129
28458	4.5077
28459	6.5888
28460	6.1945
28461	5.7166
28462	5.5307e-002
28463	6.6164e-002
28464	4.752e-002
28465	3.908e-002
28466	7.9489e-002
28467	0.21638
28468	9.1132e-002
28469	4.4411e-002
28470	9.2457e-002
28471	7.9381e-002
28472	5.3551e-002
28473	6.7762e-002
28474	0.18757
28475	4.448
28476	6.1511
28477	3.6035
28478	4.1381
28479	3.1489
28480	6.1229
28481	6.0949
28482	6.12
28483	0.81728
28484	0.87847
28485	0.8158
28486	0.79926
28487	0.80103
28488	0.8069
28489	0.87868
28490	0.82962
28491	0.80528
28492	2.6229
28493	2.1526
28494	2.8507
28495	3.8496
28496	2.9504
28497	3.6376
28498	4.2206
28499	1.9119
28500	1.682
28501	2.7788
28502	2.4883
28503	2.8314
28504	3.0618
28505	2.768
28506	3.5129
28507	2.6517
28508	4.1619
28509	3.5211
28510	3.5465
28511	1.5677
28512	1.6176
28513	1.0487
28514	0.81291
28515	1.0673
28516	0.78515
28517	0.62188
28518	0.945
28519	0.71112
28520	1.3985
28521	1.7744
28522	2.1106
28523	1.3679
28524	1.1203
28525	1.6442
28526	2.1135
28527	2.0178
28528	2.1648
28529	1.5843
28530	1.9998
28531	2.6632
28532	2.5579
28533	2.4466
28534	2.5715
28535	3.4515
28536	3.0185
28537	6.3141
28538	5.1742
28539	6.9788
28540	7.0613
28541	7.0453
28542	5.8672
28543	1.1262
28544	1.1584
28545	4.5697
28546	4.3605
28547	3.8675
28548	4.4245
28549	4.4714
28550	4.4819
28551	4.523
28552	3.8961
28553	4.7314
28554	3.9186
28555	3.953
28556	3.8974
28557	4.5448
28558	3.3255
28559	4.6606
28560	2.6559
28561	3.5536
28562	2.9874
28563	4.2705
28564	1.861
28565	2.0815
28566	2.2898
28567	2.7872
28568	1.9829
28569	2.1819
28570	2.782
28571	3.2946
28572	4.2931
28573	3.8662
28574	4.5616
28575	3.9397
28576	0.11596
28577	0.26833
28578	0.23978
28579	0.32984
28580	0.19343
28581	0.13766
28582	0.23982
28583	6.0908
28584	5.8669
28585	9.4466
28586	7.4187
28587	11.728
28588	10.935
28589	8.092
28590	9.657
28591	9.7143
28592	8.2692
28593	12.13
28594	11.488
28595	4.5834
28596	4.537
28597	4.4357
28598	4.6889
28599	4.869
28600	4.3712
28601	4.5958
28602	2.067
28603	1.1689
28604	0.73831
28605	0.92429
28606	1.4962
28607	1.9033
28608	1.1232
28609	1.2403
28610	1.8419
28611	1.6684
28612	1.7663
28613	7.4401
28614	7.0586
28615	7.0574
28616	7.441
28617	7.6553
28618	7.8167
28619	7.7662
28620	7.567
28621	7.567
28622	7.7362
28623	7.6568
28624	7.5003
28625	7.6772
28626	7.8396
28627	2.8199
28628	3.2844
28629	3.2883
28630	2.8082
28631	2.7967
28632	2.7838
28633	3.2554
28634	3.3497
28635	3.399
28636	2.5905
28637	2.6066
28638	2.8967
28639	2.8928
28640	5.782
28641	4.301
28642	4.36
28643	5.8928
28644	5.4372
28645	4.8913
28646	4.3816
28647	4.3653
28648	5.0513
28649	3.8418
28650	3.8202
28651	5.5295
28652	5.6014
28653	4.6487
28654	4.3243
28655	5.5601
28656	5.3803
28657	4.9355
28658	4.9088
28659	5.2516
28660	4.8617
28661	4.7759
28662	4.5037
28663	4.2973
28664	4.3273
28665	5.8143
28666	5.4741
28667	5.1709
28668	5.0029
28669	4.3703
28670	4.3046
28671	4.538
28672	4.3976
28673	4.3799
28674	1.6786
28675	1.6423
28676	1.7713
28677	1.8651
28678	1.5094
28679	0.54992
28680	0.864
28681	0.78908
28682	1.3679
28683	0.52192
28684	2.0981
28685	1.1629
28686	1.6994
28687	11.364
28688	11.961
28689	10.746
28690	11.066
28691	12.645
28692	11.858
28693	11.17
28694	11.255
28695	10.739
28696	11.478
28697	11.456
28698	12.685
28699	11.818
28700	12.652
28701	8.5561
28702	6.3393
28703	8.0662
28704	7.893
28705	9.5318
28706	8.3795
28707	11.667
28708	9.9772
28709	11.709
28710	9.8818
28711	0.66484
28712	0.69501
28713	0.48865
28714	0.86196
28715	0.40687
28716	0.59126
28717	0.72547
28718	0.44814
28719	1.1101
28720	0.63043
28721	0.75991
28722	1.3247
28723	1.925
28724	1.8411
28725	1.2068
28726	1.7835
28727	1.3857
28728	0.77945
28729	4.6205
28730	6.0185
28731	4.5657
28732	3.573
28733	5.5552
28734	4.1916
28735	3.7788
28736	3.728
28737	3.4187
28738	3.3173
28739	3.8398
28740	3.4441
28741	9.0748
28742	11.25
28743	11.508
28744	9.6851
28745	11.156
28746	11.308
28747	10.528
28748	10.67
28749	7.9582
28750	6.2581
28751	6.6271
28752	6.1455
28753	5.5267
28754	6.8603
28755	6.8851
28756	5.9358
28757	0.12929
28758	0.14696
28759	0.42537
28760	0.2376
28761	0.27302
28762	5.4262
28763	5.7827
28764	7.2178
28765	6.802
28766	6.5052
28767	6.1186
28768	5.999
28769	5.5995
28770	7.2899
28771	6.3858
28772	6.0837
28773	6.9097
28774	9.3774
28775	10.733
28776	12.497
28777	12.329
28778	10.848
28779	5.5222
28780	8.2819
28781	4.4819
28782	11.603
28783	11.652
28784	8.196
28785	4.4275
28786	4.8941
28787	9.3479
28788	4.8341
28789	8.1803
28790	9.9042
28791	11.325
28792	4.3403
28793	4.7563
28794	2.2645
28795	3.1773
28796	4.022
28797	2.0009
28798	1.4661
28799	3.2408
28800	1.9095
28801	2.2846
28802	2.6336
28803	3.4784
28804	3.7977
28805	2.659
28806	4.4577
28807	3.5348
28808	3.044
28809	3.0238
28810	4.2886
28811	4.4682
28812	2.0065
28813	2.2571
28814	2.2495
28815	0.75777
28816	0.70422
28817	0.73948
28818	0.42269
28819	0.47855
28820	0.46277
28821	0.35036
28822	0.66779
28823	0.68117
28824	0.78461
28825	1.0232
28826	0.86949
28827	0.84786
28828	2.7596
28829	2.6304
28830	2.2955
28831	0.88199
28832	2.0054
28833	1.0262
28834	2.0846
28835	0.56148
28836	0.26095
28837	0.33263
28838	0.29704
28839	1.7356
28840	2.6772
28841	1.6673
28842	3.3347
28843	1.6639
28844	1.3074
28845	2.9358
28846	2.2739
28847	4.0287
28848	2.1694
28849	3.6587
28850	2.4729
28851	4.0394
28852	4.3895
28853	2.9934
28854	2.6721
28855	3.515
28856	2.1299
28857	3.1665
28858	2.9194
28859	1.7766
28860	1.5835
28861	1.8044
28862	2.3462
28863	1.7811
28864	1.9069
28865	2.2551
28866	2.2586
28867	1.8285
28868	0.81943
28869	1.2068
28870	1.0945
28871	1.3194
28872	0.93844
28873	0.81679
28874	1.1197
28875	1.371
28876	3.8483
28877	2.9901
28878	1.1084
28879	4.3404
28880	3.2593
28881	4.228
28882	4.5627
28883	3.5468
28884	2.2562
28885	1.4018
28886	1.6938
28887	3.4187
28888	1.8466
28889	2.5359
28890	1.4861
28891	6.3002
28892	5.1919
28893	5.0234
28894	6.2298
28895	6.1165
28896	5.6256
28897	5.931
28898	5.753
28899	6.3697
28900	6.4994
28901	5.8254
28902	6.2519
28903	6.323
28904	6.3273
28905	2.9062
28906	2.8002
28907	2.1114
28908	0.5547
28909	2.9415
28910	2.1382
28911	1.0861
28912	0.48906
28913	0.72913
28914	0.86751
28915	0.78647
28916	0.76387
28917	0.68179
28918	0.74852
28919	0.72669
28920	0.77296
28921	0.68024
28922	0.7938
28923	0.85567
28924	0.69132
28925	0.70469
28926	0.27154
28927	0.32539
28928	0.21954
28929	1.3648
28930	1.9734
28931	1.4201
28932	1.4196
28933	1.8133
28934	1.6859
28935	1.6697
28936	1.5924
28937	1.6891
28938	1.8409
28939	2.2076
28940	2.0257
28941	2.4107
28942	0.31998
28943	0.18387
28944	9.8931e-002
28945	9.1431e-002
28946	0.19213
28947	7.1376e-002
28948	6.9433e-002
28949	0.19048
28950	0.18184
28951	0.32273
28952	0.31587
28953	7.415e-002
28954	2.3544
28955	2.1877
28956	2.3469
28957	2.294
28958	2.2491
28959	0.56454
28960	0.58231
28961	0.51499
28962	2.1601
28963	2.4246
28964	2.1999
28965	1.8739
28966	2.9111
28967	0.66989
28968	0.74334
28969	4.133
28970	3.6485
28971	4.1664
28972	3.2041
28973	2.42
28974	4.287
28975	1.9799
28976	3.2112
28977	3.182
28978	3.7237
28979	2.0288
28980	1.3783
28981	0.74616
28982	0.45037
28983	0.61298
28984	0.37744
28985	0.48565
28986	0.46
28987	0.68633
28988	0.72572
28989	0.45267
28990	0.37364
28991	0.31852
28992	0.3354
28993	0.54408
28994	0.47571
28995	0.65757
28996	0.81323
28997	0.92768
28998	0.98914
28999	0.7281
29000	0.55395
29001	0.41571
29002	0.72772
29003	0.70042
29004	0.78415
29005	0.62053
29006	0.59967
29007	0.51755
29008	0.94529
29009	0.87552
29010	0.88227
29011	0.951
29012	0.80033
29013	0.8084
29014	0.99987
29015	0.97325
29016	0.57538
29017	0.48884
29018	0.50075
29019	0.90505
29020	0.54192
29021	0.77124
29022	3.1331
29023	2.6328
29024	1.9155
29025	3.3398
29026	3.0588
29027	3.2291
29028	2.6064
29029	2.7057
29030	0.52479
29031	0.36648
29032	0.46207
29033	0.44679
29034	0.29643
29035	0.28723
29036	0.46531
29037	0.25553
29038	0.23471
29039	0.51429
29040	0.32838
29041	0.56208
29042	4.3819
29043	6.4339
29044	5.0176
29045	6.9309
29046	2.9859
29047	6.9745
29048	5.8089
29049	1.7804
29050	1.7595
29051	3.218
29052	4.0738
29053	4.575
29054	4.6526
29055	3.5581
29056	2.24
29057	3.0758
29058	4.8702
29059	4.9589
29060	5.2099
29061	4.9211
29062	3.7683
29063	0.60376
29064	0.54279
29065	0.37746
29066	0.23017
29067	0.84372
29068	0.63833
29069	0.75855
29070	1.141
29071	0.66114
29072	1.9877
29073	1.7789
29074	1.6647
29075	1.1902
29076	3.4853
29077	3.5758
29078	3.4586
29079	3.5786
29080	3.0858
29081	3.1199
29082	3.8576
29083	3.0821
29084	3.0125
29085	3.4738
29086	3.855
29087	2.9896
29088	3.1189
29089	3.4604
29090	0.19474
29091	0.2048
29092	0.2393
29093	0.25241
29094	0.27692
29095	0.1757
29096	9.7746e-002
29097	0.11256
29098	0.12782
29099	8.2728e-002
29100	0.16097
29101	0.13328
29102	9.0567e-002
29103	8.6568e-002
29104	0.23415
29105	0.16762
29106	0.20208
29107	0.14558
29108	0.10796
29109	1.2972
29110	1.3238
29111	1.3621
29112	1.5038
29113	1.4463
29114	1.4649
29115	1.3524
29116	7.0791
29117	7.4659
29118	7.0786
29119	7.6103
29120	7.4315
29121	7.4647
29122	7.8187
29123	7.6664
29124	7.8411
29125	7.6663
29126	3.202
29127	3.4855
29128	3.2505
29129	3.8796
29130	4.3818
29131	4.2293
29132	7.5635
29133	7.1113
29134	7.0775
29135	7.791
29136	7.7618
29137	6.8527
29138	7.5625
29139	7.594
29140	7.7617
29141	7.9937
29142	7.9951
29143	7.5316
29144	7.1112
29145	7.7616
29146	7.9949
29147	4.0286
29148	4.0408
29149	3.7907
29150	3.0703
29151	3.7642
29152	4.3209
29153	4.3188
29154	3.0264
29155	6.6714
29156	6.7794
29157	6.962
29158	6.7525
29159	6.8569
29160	6.9017
29161	6.693
29162	6.904
29163	2.8638
29164	2.9124
29165	2.3443
29166	2.9022
29167	2.7258
29168	2.9498
29169	2.878
29170	2.3485
29171	2.2144
29172	2.4714
29173	2.4521
29174	2.7594
29175	2.7237
29176	2.9407
29177	2.8123
29178	2.6814
29179	2.6278
29180	2.4619
29181	4.7345
29182	4.6598
29183	4.5542
29184	4.7429
29185	3.6605
29186	3.0092
29187	2.0195
29188	2.2465
29189	4.829
29190	1.6119
29191	1.9136
29192	12.424
29193	12.985
29194	12.426
29195	13.981
29196	13.055
29197	14.444
29198	22.622
29199	14.06
29200	15.552
29201	22.603
29202	1.4059
29203	1.714
29204	1.8562
29205	2.0789
29206	2.2835
29207	2.118
29208	2.4282
29209	2.6194
29210	2.2251
29211	2.4192
29212	7.3043
29213	6.9895
29214	5.5512
29215	6.9269
29216	5.0679
29217	4.8857
29218	7.2933
29219	7.1635
29220	6.0665
29221	6.4146
29222	3.5886
29223	4.9131
29224	3.3856
29225	4.1033
29226	2.7174
29227	4.6449
29228	5.1787
29229	5.5627
29230	4.9101
29231	4.6332
29232	5.9552
29233	5.389
29234	5.0631
29235	4.4396
29236	9.3315
29237	4.4033
29238	8.1563
29239	4.6579
29240	12.215
29241	4.0009
29242	7.9618
29243	5.147
29244	7.7211
29245	3.9596
29246	11.509
29247	11.42
29248	7.9584
29249	7.6107
29250	8.7719
29251	4.1557
29252	11.461
29253	12.687
29254	7.7778
29255	9.7252
29256	5.2947
29257	6.9557
29258	4.8562
29259	6.5589
29260	7.3594
29261	7.4935
29262	7.2744
29263	5.0596
29264	7.1194
29265	4.8149
29266	5.3843
29267	5.6373
29268	5.038
29269	6.0108
29270	5.1665
29271	6.2222
29272	5.983
29273	5.8021
29274	6.1836
29275	6.0924
29276	5.2742
29277	5.963
29278	6.3618
29279	5.7506
29280	6.417
29281	15.443
29282	15.516
29283	15.275
29284	14.203
29285	13.153
29286	12.609
29287	13.162
29288	15.47
29289	13.861
29290	14.052
29291	13.258
29292	12.934
29293	12.007
29294	14.028
29295	13.273
29296	13.354
29297	13.311
29298	4.2514
29299	3.9056
29300	4.9538
29301	6.7676
29302	3.6488
29303	5.5413
29304	6.5288
29305	4.5188
29306	4.4488
29307	4.6577
29308	5.6957
29309	4.6278
29310	3.899
29311	4.1831
29312	3.5971
29313	4.3424
29314	3.681
29315	4.8692
29316	3.8924
29317	3.46
29318	3.5672
29319	3.5644
29320	4.3151
29321	4.296
29322	0.73625
29323	0.754
29324	0.85783
29325	0.69277
29326	0.89335
29327	2.2235
29328	2.548
29329	2.4156
29330	2.0955
29331	1.472
29332	1.4044
29333	3.7856
29334	3.2982
29335	2.9182
29336	3.0856
29337	4.6704
29338	3.8379
29339	3.2812
29340	0.44908
29341	0.40087
29342	0.47347
29343	0.37438
29344	0.26533
29345	0.3093
29346	0.22235
29347	0.35933
29348	0.92222
29349	0.82147
29350	0.67258
29351	0.59937
29352	0.65581
29353	0.54664
29354	0.67677
29355	0.69505
29356	0.58813
29357	0.58725
29358	0.52517
29359	0.39195
29360	0.3843
29361	0.38868
29362	0.42985
29363	5.8483
29364	6.3072
29365	6.4642
29366	4.9436
29367	3.7111
29368	7.142
29369	5.3885
29370	2.075
29371	2.4219
29372	2.1192
29373	1.9563
29374	2.5654
29375	2.464
29376	2.6716
29377	2.7471
29378	2.5088
29379	3.0611
29380	4.287
29381	5.1
29382	4.8773
29383	5.0513
29384	5.1319
29385	3.5179
29386	3.0788
29387	2.6158
29388	4.2505
29389	4.8564
29390	3.2947
29391	4.3513
29392	4.9552
29393	3.0194
29394	2.1098
29395	2.3741
29396	2.6232
29397	3.1831
29398	3.0672
29399	3.8041
29400	4.1015
29401	2.5567
29402	3.2087
29403	3.3204
29404	2.7337
29405	2.7332
29406	3.2938
29407	3.0672
29408	4.1224
29409	3.7516
29410	3.0756
29411	3.2762
29412	2.4608
29413	2.2261
29414	3.8871
29415	3.7453
29416	3.8062
29417	3.4772
29418	3.5813
29419	3.0487
29420	4.0096
29421	3.4472
29422	2.1526
29423	2.5626
29424	1.7896
29425	2.3745
29426	2.3582
29427	2.9563
29428	3.215
29429	1.8741
29430	0.81266
29431	0.72593
29432	0.78524
29433	0.72522
29434	0.79229
29435	0.90539
29436	0.60475
29437	0.60684
29438	0.98564
29439	3.0388
29440	2.208
29441	0.43555
29442	0.54433
29443	3.157
29444	3.1584
29445	3.1305
29446	2.2932
29447	3.0878
29448	0.61465
29449	0.81405
29450	1.872
29451	1.9715
29452	1.362
29453	0.98119
29454	1.8947
29455	1.9603
29456	2.1513
29457	2.2471
29458	2.0871
29459	2.514
29460	5.6314
29461	5.7979
29462	5.026
29463	6.0617
29464	5.9722
29465	5.1533
29466	6.3928
29467	6.1717
29468	6.2172
29469	5.9844
29470	5.9259
29471	5.2546
29472	5.1396
29473	6.3303
29474	5.7105
29475	2.2265
29476	2.1015
29477	2.2535
29478	2.2363
29479	2.1323
29480	1.1701
29481	1.2215
29482	0.79005
29483	0.86142
29484	0.90576
29485	0.79656
29486	0.91907
29487	1.1089
29488	1.0705
29489	0.8906
29490	1.0015
29491	1.0127
29492	0.81982
29493	0.81162
29494	1.4232
29495	0.97922
29496	1.2039
29497	1.4268
29498	2.0868
29499	2.7623
29500	2.3658
29501	3.4959
29502	1.3506
29503	1.9662
29504	4.3977
29505	4.2624
29506	2.921
29507	2.8425
29508	3.6984
29509	2.187
29510	2.9548
29511	3.0964
29512	2.3916
29513	2.3081
29514	3.028
29515	1.2257
29516	3.1413
29517	0.31893
29518	0.76355
29519	0.33089
29520	0.51749
29521	0.5714
29522	0.29712
29523	0.34764
29524	5.7958
29525	6.1757
29526	5.4688
29527	5.6822
29528	5.7864
29529	5.9306
29530	5.4322
29531	6.1864
29532	4.9747
29533	5.0451
29534	5.0085
29535	5.1772
29536	4.792
29537	4.9239
29538	0.5832
29539	0.58026
29540	0.56024
29541	0.62746
29542	0.52954
29543	0.53844
29544	0.71299
29545	0.7009
29546	0.6574
29547	0.65495
29548	0.48984
29549	0.59441
29550	0.61156
29551	0.48704
29552	0.51252
29553	0.4758
29554	0.76771
29555	0.86994
29556	0.75421
29557	0.69826
29558	0.85061
29559	0.78892
29560	0.93382
29561	0.63251
29562	0.70029
29563	0.64325
29564	0.6972
29565	0.65927
29566	0.68055
29567	0.61988
29568	2.9186
29569	2.8484
29570	2.9322
29571	2.8975
29572	2.1366
29573	1.9563
29574	2.8868
29575	3.0192
29576	3.2954
29577	1.9382
29578	3.2644
29579	4.2082
29580	3.0151
29581	2.6384
29582	4.3332
29583	3.5251
29584	3.7851
29585	4.431
29586	3.8107
29587	4.5684
29588	4.3155
29589	4.2508
29590	4.1888
29591	4.3771
29592	3.2108
29593	3.951
29594	4.2234
29595	4.2244
29596	4.5659
29597	4.6888
29598	4.4609
29599	4.1225
29600	4.0476
29601	4.1659
29602	2.7271
29603	3.0336
29604	2.5891
29605	3.0151
29606	2.5438
29607	3.3564
29608	3.5037
29609	3.5841
29610	3.8942
29611	3.7474
29612	2.931
29613	2.4307
29614	3.7206
29615	4.0957
29616	4.2973
29617	5.5048
29618	4.9426
29619	3.5383
29620	4.4379
29621	5.6496
29622	5.1702
29623	4.6677
29624	5.0092
29625	3.4507
29626	5.1575
29627	4.9855
29628	3.8226
29629	4.9722
29630	4.4728
29631	2.7122
29632	5.2068
29633	3.3817
29634	5.1048
29635	4.9541
29636	5.0134
29637	4.3584
29638	2.5344
29639	2.6236
29640	4.8386
29641	4.2733
29642	5.1207
29643	4.4345
29644	2.8086
29645	2.9166
29646	3.0639
29647	2.9348
29648	2.9891
29649	2.8346
29650	2.9405
29651	2.9294
29652	3.0819
29653	2.7431
29654	2.7211
29655	3.2671
29656	3.264
29657	2.8158
29658	3.3859
29659	3.3881
29660	3.2601
29661	2.7505
29662	1.8423
29663	3.2026
29664	3.7729
29665	3.375
29666	3.5191
29667	3.3945
29668	3.0042
29669	2.986
29670	3.2904
29671	3.2935
29672	3.5265
29673	2.7268
29674	2.7164
29675	2.8548
29676	3.2852
29677	2.9201
29678	3.276
29679	3.9213
29680	3.6924
29681	3.7666
29682	3.782
29683	4.0844
29684	3.2316
29685	3.4657
29686	2.6171
29687	0.26298
29688	0.32349
29689	0.15108
29690	0.2847
29691	3.7004e-002
29692	3.3767e-002
29693	7.4401e-002
29694	4.3458e-002
29695	3.0922
29696	1.569
29697	1.2245
29698	2.5298
29699	1.1511
29700	1.9238
29701	3.2435
29702	2.3426
29703	3.1174
29704	2.5157
29705	1.4896
29706	1.5957
29707	1.3131
29708	1.0476
29709	2.38
29710	1.8241
29711	2.2263
29712	0.84226
29713	0.87533
29714	0.93327
29715	1.646
29716	1.1666
29717	1.3059
29718	0.75313
29719	1.2487
29720	2.0823
29721	2.113
29722	2.9101
29723	2.1863
29724	2.718
29725	1.0021
29726	0.97081
29727	0.66654
29728	0.55391
29729	0.69607
29730	0.72014
29731	0.78111
29732	0.73594
29733	1.1291
29734	1.0133
29735	1.0454
29736	1.1108
29737	1.2187
29738	1.1521
29739	1.1112
29740	7.5833
29741	7.1145
29742	7.7766
29743	7.5759
29744	7.1267
29745	7.9672
29746	7.9709
29747	7.5843
29748	6.8508
29749	7.1153
29750	7.7844
29751	7.5942
29752	7.2922
29753	7.5635
29754	7.1672
29755	5.6371
29756	5.1501
29757	7.5049
29758	7.3578
29759	4.7373
29760	7.2403
29761	6.6664
29762	4.8616
29763	5.617
29764	10.101
29765	6.5074
29766	8.0196
29767	11.155
29768	7.8619
29769	6.0463
29770	7.6502
29771	7.2352
29772	7.6879
29773	7.626
29774	6.7282
29775	5.8887
29776	2.3531
29777	2.2208
29778	1.3386
29779	0.86869
29780	1.699
29781	1.9529
29782	2.2828
29783	2.455
29784	2.5189
29785	2.7046
29786	0.77351
29787	2.1507
29788	1.6715
29789	1.5244
29790	1.5858
29791	1.4335
29792	1.4917
29793	1.2022
29794	1.3918
29795	1.381
29796	2.253
29797	2.0141
29798	1.9855
29799	2.0805
29800	1.7971
29801	2.147
29802	2.4178
29803	2.3852
29804	1.7703
29805	1.6347
29806	1.6127
29807	1.0058
29808	1.0468
29809	0.89535
29810	0.754
29811	0.92764
29812	0.87911
29813	0.63543
29814	0.71227
29815	0.91417
29816	0.79611
29817	0.8673
29818	0.19912
29819	0.17334
29820	0.25582
29821	0.25749
29822	0.14607
29823	9.8541e-002
29824	0.13061
29825	2.1601
29826	1.9271
29827	1.8508
29828	2.1439
29829	0.85374
29830	1.3093
29831	1.3451
29832	1.4276
29833	1.2004
29834	1.3508
29835	2.4254
29836	1.6221
29837	0.97213
29838	0.76974
29839	0.82822
29840	0.71026
29841	0.61646
29842	0.6651
29843	0.68048
29844	0.59669
29845	0.60066
29846	0.45737
29847	0.42113
29848	0.35499
29849	0.41396
29850	4.6453
29851	4.412
29852	3.1201
29853	2.9129
29854	2.7531
29855	2.8187
29856	3.4775
29857	2.5173
29858	2.6155
29859	2.1584
29860	2.1793
29861	2.422
29862	2.5213
29863	2.1517
29864	2.4751
29865	2.8146
29866	2.5701
29867	2.5087
29868	2.4873
29869	2.0429
29870	1.9549
29871	2.2109
29872	2.8816
29873	2.7722
29874	2.2355
29875	2.565
29876	2.6652
29877	2.6645
29878	7.1148e-002
29879	5.1972e-002
29880	6.5608e-002
29881	0.13859
29882	0.14643
29883	0.12235
29884	7.6729e-002
29885	8.2634e-002
29886	2.2154e-002
29887	2.8968e-002
29888	4.1629e-002
29889	8.0647e-002
29890	5.0121e-002
29891	5.6738e-002
29892	2.8512e-002
29893	4.1891e-002
29894	3.0121e-002
29895	2.2447e-002
29896	4.9414e-002
29897	1.3084
29898	1.4843
29899	1.3416
29900	1.488
29901	1.5502
29902	3.0743
29903	2.5385
29904	4.8071
29905	5.6089
29906	4.2061
29907	3.1069
29908	2.0205
29909	7.1701
29910	7.3119
29911	6.5469
29912	4.5399
29913	3.6858
29914	7.2282
29915	6.017
29916	5.3842
29917	6.5996
29918	7.3575
29919	6.1096
29920	2.4056
29921	3.2588
29922	3.4505
29923	2.1587
29924	2.2097
29925	2.6457
29926	3.2118
29927	3.0992
29928	2.7939
29929	3.28
29930	3.5313
29931	4.4054
29932	3.9976
29933	3.4982
29934	5.0259
29935	4.7505
29936	3.8115
29937	3.6634
29938	2.4115
29939	4.4037
29940	4.501
29941	2.2986
29942	2.0274
29943	2.2875
29944	2.051
29945	1.6463
29946	1.8183
29947	1.6026
29948	1.824
29949	1.5302
29950	2.6828
29951	2.5067
29952	2.333
29953	3.1887
29954	2.3783
29955	2.1992
29956	3.5984
29957	4.0029
29958	3.973
29959	1.5155
29960	1.4978
29961	1.4734
29962	1.256
29963	0.93869
29964	2.1707
29965	2.232
29966	2.2144
29967	1.9309
29968	2.096
29969	2.2107
29970	2.2309
29971	2.0484
29972	2.1809
29973	2.4527
29974	2.2828
29975	2.1723
29976	1.7455
29977	1.7858
29978	1.8389
29979	1.5567
29980	1.3799
29981	1.7611
29982	1.5256
29983	1.4332
29984	1.5443
29985	1.5284
29986	2.045
29987	1.9762
29988	1.812
29989	1.8697
29990	6.0732
29991	6.1557
29992	6.3228
29993	5.4862
29994	5.0601
29995	6.1491
29996	6.0451
29997	6.3322
29998	6.2491
29999	5.852
30000	5.9846
30001	5.2044
30002	5.8776
30003	5.0871
30004	5.2828
30005	5.5229
30006	5.8232
30007	4.3345
30008	3.0714
30009	4.1037
30010	2.1472
30011	1.3501
30012	3.4935
30013	4.1148
30014	1.5677
30015	1.6878
30016	1.5838
30017	1.7493
30018	1.1502
30019	1.4687
30020	1.1363
30021	1.0311
30022	1.1514
30023	1.022
30024	6.1256
30025	7.4199
30026	6.0527
30027	7.324
30028	3.6301
30029	3.0212
30030	5.3189
30031	6.5061
30032	2.7271
30033	2.8579
30034	3.0815
30035	2.9366
30036	3.1243
30037	3.5596
30038	2.8215
30039	2.1744
30040	3.3739
30041	3.5904
30042	2.7211
30043	2.6621
30044	2.4261
30045	2.378
30046	2.5091
30047	2.5547
30048	2.5956
30049	2.562
30050	2.3512
30051	2.0424
30052	1.6938
30053	2.1545
30054	2.8119
30055	2.5935
30056	2.3964
30057	2.467
30058	1.9035
30059	1.9075
30060	1.7225
30061	2.6902
30062	0.17774
30063	0.51854
30064	0.52871
30065	0.4213
30066	0.6361
30067	0.69759
30068	0.65561
30069	0.16207
30070	0.14895
30071	0.18053
30072	0.34531
30073	0.22129
30074	0.3068
30075	0.17021
30076	0.13521
30077	0.13129
30078	4.0852
30079	4.146
30080	3.7435
30081	3.5118
30082	3.6629
30083	4.4283
30084	5.4246
30085	3.9396
30086	4.7051
30087	4.7956
30088	3.8397
30089	5.8341
30090	5.3731
30091	5.4432
30092	5.102
30093	5.7567
30094	5.2207
30095	2.1065
30096	1.6407
30097	1.403
30098	2.2307
30099	2.0418
30100	1.9288
30101	1.4816
30102	1.8074
30103	1.263
30104	1.7796
30105	1.6381
30106	2.1765
30107	1.7732
30108	3.7811
30109	3.5543
30110	3.5678
30111	3.4873
30112	3.4102
30113	4.0083
30114	3.8272
30115	3.8375
30116	3.3914
30117	3.0781
30118	3.46
30119	3.1867
30120	3.4736
30121	3.3753
30122	0.40505
30123	0.41766
30124	0.63931
30125	4.6576
30126	4.2839
30127	4.1556
30128	4.0289
30129	3.5707
30130	4.0994
30131	4.5161
30132	3.8395
30133	4.0145
30134	3.0115
30135	3.4148
30136	3.2838
30137	3.1571
30138	4.125
30139	3.5534
30140	2.7187
30141	2.4551
30142	3.5841
30143	2.94
30144	1.4548
30145	1.3531
30146	1.5469
30147	1.3631
30148	1.2668
30149	5.2537
30150	5.2697
30151	5.0129
30152	5.3371
30153	5.2266
30154	5.3656
30155	4.938
30156	4.8525
30157	4.779
30158	4.0634
30159	6.6052
30160	7.1089
30161	6.5035
30162	7.5551
30163	6.891
30164	6.3782
30165	6.268
30166	6.7115
30167	6.4689
30168	7.3391
30169	7.1646
30170	6.7487
30171	6.6439
30172	6.4355
30173	6.2129
30174	3.8296
30175	5.4723
30176	6.4428
30177	6.1071
30178	4.08
30179	5.2496
30180	5.2683
30181	5.0311
30182	0.27412
30183	0.20559
30184	0.41938
30185	0.40287
30186	0.55458
30187	0.31183
30188	0.37126
30189	0.45489
30190	0.26097
30191	2.9778
30192	2.5742
30193	3.3469
30194	3.2363
30195	2.9159
30196	2.7661
30197	2.6264
30198	2.248
30199	2.8184
30200	2.5502
30201	2.5491
30202	3.622
30203	3.1424
30204	2.9222
30205	3.4138
30206	2.8957
30207	3.0389e-002
30208	4.2386e-002
30209	8.0239e-002
30210	5.8305e-002
30211	3.4056e-002
30212	2.8808e-002
30213	3.6838e-002
30214	2.9982e-002
30215	5.1242e-002
30216	3.4988e-002
30217	2.5812e-002
30218	2.3888
30219	2.2267
30220	2.5326
30221	2.77
30222	1.4277
30223	0.95646
30224	2.3041
30225	1.7653
30226	1.1668
30227	0.89403
30228	2.2654
30229	2.2393
30230	1.892
30231	1.5747
30232	1.4414
30233	2.1752
30234	2.2025
30235	2.5536
30236	2.0229
30237	1.9921
30238	7.5546
30239	7.0689
30240	7.1025
30241	7.7534
30242	6.8436
30243	7.1019
30244	7.5539
30245	7.5231
30246	7.7534
30247	7.9865
30248	6.8816
30249	6.881
30250	7.7526
30251	7.9846
30252	7.985
30253	7.7529
30254	7.7526
30255	7.9861
30256	3.5953
30257	3.5602
30258	3.6178
30259	3.6917
30260	3.7417
30261	4.5591
30262	3.642
30263	3.2782
30264	3.8425
30265	3.5068
30266	3.6509
30267	6.8493
30268	7.2351
30269	7.1096
30270	7.0173
30271	6.9043
30272	6.7727
30273	6.5483
30274	6.5643
30275	6.6625
30276	7.2251
30277	6.822
30278	6.6998
30279	7.1428
30280	7.2621
30281	7.0823
30282	7.1937
30283	7.0685
30284	6.9417
30285	7.2752
30286	7.1543
30287	4.6626
30288	6.848
30289	6.8752
30290	4.6783
30291	6.2794
30292	5.8305
30293	6.4618
30294	6.1949
30295	6.2171
30296	6.2998
30297	5.1282
30298	4.7588
30299	3.9583
30300	4.6731
30301	2.575
30302	3.8345
30303	2.7208
30304	3.1708
30305	4.9326
30306	2.6784
30307	3.2059
30308	4.8487
30309	4.1949
30310	6.6885
30311	6.5836
30312	6.7636
30313	6.4875
30314	6.4498
30315	6.6871
30316	6.8467
30317	6.8023
30318	6.9768
30319	6.8543
30320	7.0468
30321	6.9128
30322	6.8559
30323	7.0733
30324	6.9458
30325	3.7155
30326	5.2806
30327	5.2839
30328	3.623
30329	5.5382
30330	5.5496
30331	4.7671
30332	4.7683
30333	4.8844
30334	4.4879
30335	3.9509
30336	4.5526
30337	4.4386
30338	2.4595
30339	2.0794
30340	1.7267
30341	3.0463
30342	3.1688
30343	3.3133
30344	3.0312
30345	2.2913
30346	2.4385
30347	3.584
30348	3.4148
30349	11.434
30350	12.265
30351	10.662
30352	11.973
30353	11.855
30354	11.211
30355	10.765
30356	11.486
30357	11.035
30358	12.833
30359	12.676
30360	12.662
30361	12.789
30362	5.892
30363	7.7845
30364	7.8519
30365	8.6432
30366	13.72
30367	9.6708
30368	13.812
30369	13.504
30370	9.8374
30371	5.9645
30372	5.7121
30373	13.447
30374	9.7735
30375	8.7322
30376	9.8185
30377	5.0513
30378	4.9365
30379	0.24066
30380	0.35935
30381	0.288
30382	0.48746
30383	0.44238
30384	0.21559
30385	0.28612
30386	0.37236
30387	1.3922
30388	1.4565
30389	1.5813
30390	1.8966
30391	1.7767
30392	1.2098
30393	1.39
30394	1.9557
30395	1.5434
30396	2.1255
30397	1.7525
30398	1.9128
30399	1.7382
30400	1.3506
30401	1.0091
30402	1.3208
30403	1.3387
30404	1.1342
30405	1.9639
30406	1.8175
30407	0.95674
30408	7.5835
30409	7.1541
30410	7.155
30411	7.1552
30412	7.5751
30413	7.7841
30414	7.6029
30415	7.1542
30416	6.9025
30417	7.7639
30418	7.5839
30419	7.7974
30420	7.9795
30421	7.7996
30422	7.6027
30423	7.7837
30424	7.9696
30425	7.9988
30426	7.7965
30427	7.9934
30428	4.5375
30429	6.8797
30430	6.8844
30431	4.3254
30432	4.1278
30433	4.6725
30434	4.8622
30435	6.5589
30436	6.5234
30437	4.7304
30438	5.1271
30439	6.2065
30440	6.1019
30441	6.1972
30442	6.087
30443	4.6718
30444	5.7221
30445	5.6918
30446	5.8373
30447	4.5722
30448	4.5071
30449	4.4765
30450	4.1541
30451	3.8415
30452	5.0934
30453	4.8567
30454	4.7642
30455	4.7575
30456	5.1072
30457	4.895
30458	4.4019
30459	4.3697
30460	3.5627
30461	4.091
30462	3.6675
30463	3.6699
30464	4.0102
30465	2.6666
30466	2.3474
30467	2.4658
30468	2.7327
30469	2.6642
30470	2.8844
30471	2.596
30472	2.7804
30473	2.9518
30474	2.9804
30475	2.804
30476	2.8112
30477	2.5406
30478	1.8342
30479	1.8555
30480	1.4039
30481	0.61051
30482	0.88333
30483	1.1024
30484	1.5571
30485	0.65962
30486	0.63432
30487	0.65636
30488	0.44009
30489	0.49553
30490	10.45
30491	9.7729
30492	10.352
30493	9.6871
30494	9.3173
30495	9.7199
30496	9.8308
30497	10.106
30498	10.055
30499	9.978
30500	9.9814
30501	10.513
30502	10.297
30503	10.096
30504	10.641
30505	10.414
30506	9.9284
30507	10.045
30508	9.8939
30509	9.9086
30510	10.28
30511	10.153
30512	10.233
30513	10.163
30514	9.9607
30515	9.9731
30516	10.096
30517	10.489
30518	10.742
30519	4.2773
30520	4.2632
30521	3.7432
30522	6.1217
30523	5.0891
30524	5.9289
30525	4.3405
30526	5.8066
30527	4.8254
30528	5.4053
30529	3.5408
30530	3.8272
30531	4.5556
30532	3.7899
30533	4.7167
30534	4.4798
30535	5.4118
30536	4.7868
30537	4.307
30538	3.9316
30539	3.7425
30540	4.1164
30541	5.2472
30542	5.2833
30543	5.6134
30544	7.4833
30545	6.3774
30546	7.0374
30547	6.2715
30548	6.2938
30549	7.8545
30550	6.5288
30551	8.642
30552	10.609
30553	5.7144
30554	6.0306
30555	10.236
30556	8.4961
30557	7.8311
30558	2.6118
30559	2.7165
30560	3.3047
30561	3.401
30562	3.6389
30563	2.7006
30564	2.4637
30565	2.7699
30566	4.5528
30567	4.2389
30568	3.7376
30569	2.5332
30570	2.8659
30571	2.3237
30572	3.1509
30573	3.892
30574	3.6716
30575	3.4827
30576	2.8497
30577	3.8202
30578	3.7197
30579	3.8701
30580	3.6693
30581	1.5346
30582	1.8838
30583	1.467
30584	1.2624
30585	1.7244
30586	2.5618
30587	2.3994
30588	2.2892
30589	2.241
30590	2.3708
30591	2.1641
30592	2.71
30593	2.6125
30594	1.3959
30595	2.7041
30596	2.7224
30597	1.3497
30598	2.0418
30599	1.5654
30600	2.1955
30601	2.4451
30602	1.6891
30603	2.0952
30604	1.8877
30605	2.1575
30606	2.9305
30607	3.0942
30608	2.483
30609	2.3792
30610	2.8265
30611	2.7159
30612	3.2546
30613	3.0074
30614	2.684
30615	2.4128
30616	2.6887
30617	2.3742
30618	3.3633
30619	3.1374
30620	3.3205
30621	3.0225
30622	2.2051
30623	2.7676
30624	1.8776
30625	1.8882
30626	2.5649
30627	2.1111
30628	2.7464
30629	2.2353
30630	2.1944
30631	2.4873
30632	3.0897
30633	2.8399
30634	2.6363
30635	0.41723
30636	0.20766
30637	0.15593
30638	0.35313
30639	0.31636
30640	0.18711
30641	0.29074
30642	0.2267
30643	0.37224
30644	0.31615
30645	0.38544
30646	0.35312
30647	0.46102
30648	0.61937
30649	0.72277
30650	0.66348
30651	0.69463
30652	1.8239
30653	1.2363
30654	1.1601
30655	1.0481
30656	1.022
30657	0.75292
30658	0.72793
30659	0.96293
30660	1.002
30661	1.0409
30662	3.3152
30663	3.46
30664	3.3597
30665	2.3921
30666	2.9433
30667	2.1376
30668	2.5735
30669	2.0736
30670	2.2911
30671	2.2092
30672	2.3605
30673	1.9219
30674	2.7648
30675	3.0681
30676	4.6978
30677	1.0735
30678	1.8752
30679	0.97913
30680	1.081
30681	0.85915
30682	2.4874
30683	2.1433
30684	2.1474
30685	2.4997
30686	4.4034
30687	4.4603
30688	3.9512
30689	4.0463
30690	3.9085
30691	3.1792
30692	2.9603
30693	2.5589
30694	2.3777
30695	3.5048
30696	3.8524
30697	3.5529
30698	3.95
30699	3.4171
30700	3.8135
30701	3.8957
30702	3.2628
30703	4.0742
30704	4.1236
30705	4.2329
30706	3.7419
30707	3.8507
30708	3.3066
30709	1.4611
30710	1.9903
30711	1.3845
30712	2.46
30713	2.7845
30714	2.5078
30715	2.5156
30716	2.2731
30717	2.0577
30718	2.4824
30719	7.5549
30720	7.1392
30721	7.7606
30722	7.5239
30723	7.5573
30724	7.9453
30725	7.1413
30726	7.9206
30727	7.718
30728	0.694
30729	0.73031
30730	0.71409
30731	0.72951
30732	0.64196
30733	0.67992
30734	0.89719
30735	0.93605
30736	1.9461
30737	2.17
30738	1.7122
30739	1.4417
30740	1.3996
30741	3.0134
30742	3.8387
30743	3.2025
30744	4.6007
30745	5.1918
30746	5.3412
30747	5.755
30748	4.9576
30749	4.2308
30750	3.8456
30751	5.3804
30752	4.8112
30753	2.5661
30754	2.4014
30755	3.6069
30756	3.3614
30757	4.4245
30758	3.8143
30759	2.3505
30760	2.3221
30761	2.9692
30762	2.7429
30763	1.3086
30764	1.527
30765	1.5729
30766	1.8504
30767	1.9651
30768	1.1105
30769	0.9773
30770	1.7789
30771	1.7801
30772	1.7977
30773	1.7315
30774	1.8903
30775	1.9352
30776	1.9092
30777	0.98691
30778	2.3388
30779	0.83126
30780	1.2705
30781	2.0534
30782	1.7443
30783	1.2309
30784	1.3797
30785	0.71428
30786	1.2484
30787	2.5973
30788	2.1807
30789	1.4015
30790	1.7475
30791	2.2455
30792	2.4396
30793	1.53
30794	2.212
30795	8.8318
30796	8.326
30797	8.3099
30798	9.2161
30799	8.4419
30800	8.4455
30801	8.6958
30802	9.0147
30803	9.4995
30804	9.0379
30805	8.9384
30806	8.9596
30807	1.1402
30808	0.95341
30809	1.185
30810	1.0788
30811	1.261
30812	1.3307
30813	0.93415
30814	0.60009
30815	0.69694
30816	0.70838
30817	1.0032
30818	1.11
30819	6.9103
30820	7.1694
30821	7.165
30822	7.8136
30823	7.6176
30824	7.622
30825	6.8936
30826	7.1494
30827	6.6362
30828	6.8885
30829	8.0092
30830	7.6247
30831	7.8063
30832	7.6127
30833	8.0089
30834	7.817
30835	8.0032
30836	7.8176
30837	8.0111
30838	0.25145
30839	0.31301
30840	0.21187
30841	0.29507
30842	0.98765
30843	0.97939
30844	0.65334
30845	0.66972
30846	0.58304
30847	0.60914
30848	0.77352
30849	0.46837
30850	0.49569
30851	3.113
30852	2.2508
30853	3.1107
30854	3.1598
30855	3.2155
30856	2.8338
30857	3.1791
30858	3.2841
30859	3.1177
30860	3.7204
30861	3.5698
30862	3.6949
30863	3.6077
30864	4.1469
30865	2.7914
30866	3.4492
30867	3.4323
30868	4.1465
30869	2.8038
30870	2.8682
30871	3.5033
30872	3.4975
30873	3.2374
30874	6.0241
30875	5.2818
30876	7.2956
30877	5.8597
30878	6.5648
30879	6.0952
30880	5.0021
30881	6.8402
30882	6.8741
30883	8.6399
30884	8.6625
30885	6.167
30886	8.3747
30887	8.4653
30888	4.1114
30889	4.2623
30890	4.1702
30891	4.052
30892	4.0373
30893	4.0438
30894	4.2421
30895	4.0721
30896	4.127
30897	4.1609
30898	4.1793
30899	3.7502
30900	4.1885
30901	3.8986
30902	3.2943
30903	3.5039
30904	3.8276
30905	4.8315
30906	3.6523
30907	4.9312
30908	3.5575
30909	3.385
30910	3.7723
30911	4.6018
30912	3.9406
30913	4.8873
30914	4.1726
30915	4.4399
30916	5.1257
30917	4.7496
30918	4.2564
30919	4.4162
30920	6.392
30921	6.7536
30922	6.6411
30923	6.8783
30924	6.4767
30925	6.4653
30926	6.3705
30927	6.735
30928	6.8845
30929	7.3338
30930	7.1552
30931	6.8159
30932	5.6539
30933	5.0516
30934	6.0266
30935	5.8235
30936	6.0058
30937	6.2096
30938	5.1892
30939	6.1142
30940	6.1877
30941	6.4317
30942	5.7636
30943	6.383
30944	5.977
30945	6.5348
30946	6.556
30947	2.6589e-002
30948	1.6148e-002
30949	3.0541e-002
30950	4.465e-002
30951	3.0602e-002
30952	3.5562e-002
30953	3.7553e-002
30954	1.6572
30955	1.6807
30956	1.8427
30957	1.7351
30958	1.8109
30959	1.628
30960	1.2405
30961	1.5218
30962	1.4732
30963	1.1035
30964	1.3129
30965	1.0142
30966	1.2268
30967	2.8443
30968	3.7989
30969	3.3681
30970	3.7231
30971	3.2124
30972	3.6201
30973	2.9518
30974	6.9882
30975	6.5593
30976	6.7449
30977	6.7619
30978	6.9558
30979	7.1537
30980	6.444
30981	7.1897
30982	6.9248
30983	6.9739
30984	7.165
30985	7.0865
30986	6.9415
30987	7.108
30988	6.8099
30989	6.9367
30990	7.2034
30991	6.9529
30992	6.8179
30993	7.0864
30994	7.0568
30995	7.1564
30996	6.7416
30997	7.3225
30998	7.1266
30999	6.9792
31000	7.0606
31001	6.7459
31002	7.162
31003	7.3047
31004	7.2706
31005	6.6219
31006	6.6176
31007	9.5772
31008	10.032
31009	6.4702
31010	8.1714
31011	8.8061
31012	7.5881
31013	4.5947
31014	8.4582
31015	4.7502
31016	4.6008
31017	5.8058
31018	6.029
31019	5.0655
31020	3.9354
31021	4.4642
31022	4.3505
31023	4.4972
31024	5.4719
31025	4.3123
31026	5.0308
31027	4.0893
31028	3.9298
31029	5.5738
31030	3.8565
31031	4.6144
31032	3.6032
31033	3.3316
31034	4.5324
31035	4.6709
31036	5.4751
31037	4.3417
31038	4.1061
31039	4.5709
31040	6.0797
31041	3.5955
31042	4.5449
31043	4.5859
31044	4.8792
31045	5.455
31046	6.8616
31047	5.8463
31048	7.5119
31049	7.9619
31050	6.1153
31051	6.62
31052	7.5387
31053	7.3212
31054	7.0874
31055	7.4422
31056	5.4885
31057	4.4632
31058	4.627
31059	7.3411
31060	5.7043
31061	13.199
31062	13.275
31063	12.818
31064	10.545
31065	9.9057
31066	11.006
31067	12.9
31068	10.148
31069	10.158
31070	11.434
31071	14.481
31072	2.3614
31073	2.3347
31074	1.7259
31075	2.4416
31076	2.5932
31077	3.8717
31078	3.366
31079	2.6847
31080	4.0063
31081	3.5851
31082	3.4818
31083	2.9629
31084	2.587
31085	3.4941
31086	4.1673
31087	4.6189
31088	3.6699
31089	2.9721
31090	3.5062
31091	3.1555
31092	4.7576
31093	4.3799
31094	5.8444
31095	2.3052
31096	2.7554
31097	3.5156
31098	3.2985
31099	3.7881
31100	4.1516
31101	2.7981
31102	4.4355
31103	4.0254
31104	2.9805
31105	3.0335
31106	2.7151
31107	2.4921
31108	3.1379
31109	2.5751
31110	2.2337
31111	2.993
31112	2.7506
31113	2.7681
31114	2.5918
31115	2.929
31116	3.1723
31117	2.909
31118	2.6436
31119	2.4066
31120	2.2937
31121	2.6003
31122	2.6915
31123	2.8113
31124	1.3081
31125	0.60186
31126	1.0851
31127	0.74025
31128	0.57964
31129	0.61861
31130	0.742
31131	1.0021
31132	1.4237
31133	0.82439
31134	1.1465
31135	0.94726
31136	1.4033
31137	2.148
31138	2.9487
31139	2.3499
31140	2.3647
31141	1.8438
31142	2.0995
31143	1.745
31144	1.6705
31145	3.3005
31146	2.9068
31147	2.6202
31148	3.6306
31149	0.11286
31150	5.2637e-002
31151	0.20776
31152	0.13772
31153	5.1039e-002
31154	3.8426e-002
31155	9.9397e-002
31156	4.9985e-002
31157	8.9203e-002
31158	0.10636
31159	5.1431e-002
31160	1.2667
31161	1.4828
31162	1.0135
31163	0.6921
31164	0.52486
31165	0.71513
31166	0.73858
31167	0.66292
31168	0.49936
31169	0.46356
31170	0.53996
31171	0.53232
31172	0.62472
31173	0.57626
31174	0.63982
31175	0.65273
31176	0.60328
31177	0.48029
31178	0.45203
31179	0.52733
31180	1.2324
31181	1.1549
31182	1.0732
31183	1.0899
31184	1.2794
31185	1.3543
31186	1.465
31187	1.5048
31188	1.5833
31189	1.4421
31190	1.298
31191	1.1748
31192	1.0556
31193	1.1311
31194	1.3185
31195	1.462
31196	1.4484
31197	1.2718
31198	1.1631
31199	1.3181
31200	1.3761
31201	2.9732
31202	2.1632
31203	2.5156
31204	3.1088
31205	2.5336
31206	2.9819
31207	1.7823
31208	1.8193
31209	2.3646
31210	2.2437
31211	2.0658
31212	1.2661
31213	5.4273e-002
31214	9.4894e-002
31215	9.5258e-002
31216	0.12015
31217	3.6571e-002
31218	0.16072
31219	0.13231
31220	8.491e-002
31221	2.5396e-002
31222	4.2259e-002
31223	0.10843
31224	4.3111e-002
31225	7.6794e-002
31226	3.448e-002
31227	0.54272
31228	0.55754
31229	0.66648
31230	0.65355
31231	0.72639
31232	0.72398
31233	2.9038
31234	2.6564
31235	3.3124
31236	3.4091
31237	2.9091
31238	2.8159
31239	3.2194
31240	3.2694
31241	3.4956
31242	3.0932
31243	2.6271
31244	2.6339
31245	2.5282
31246	2.3055
31247	0.57236
31248	0.76931
31249	0.54907
31250	0.45645
31251	0.44081
31252	0.28557
31253	0.42258
31254	0.58416
31255	0.34266
31256	0.32584
31257	0.59714
31258	0.52077
31259	0.68839
31260	0.73302
31261	0.65775
31262	1.8976
31263	1.7753
31264	2.1619
31265	1.8747
31266	1.399
31267	1.3877
31268	1.1666
31269	1.1326
31270	2.4553
31271	2.5714
31272	2.3368
31273	1.7725
31274	1.6786
31275	2.6919
31276	2.1005
31277	0.91361
31278	0.9528
31279	0.89015
31280	0.73279
31281	0.86269
31282	0.80693
31283	0.71827
31284	0.59718
31285	0.62121
31286	0.62164
31287	0.51641
31288	0.70455
31289	0.64991
31290	0.43443
31291	0.40453
31292	0.47934
31293	0.54562
31294	0.44013
31295	0.83534
31296	0.51294
31297	2.0741
31298	1.8946
31299	2.6837
31300	2.1812
31301	1.3373
31302	1.4048
31303	1.0063
31304	1.4941
31305	2.0719
31306	2.5091
31307	2.6181
31308	2.6785
31309	2.595
31310	2.4362
31311	2.4349
31312	2.8335
31313	2.8454
31314	2.6975
31315	2.4765
31316	2.6447
31317	2.2237
31318	2.9339
31319	2.8158
31320	3.1821
31321	2.5292
31322	2.289
31323	2.8008
31324	2.7277
31325	2.8021
31326	2.7675
31327	2.7967
31328	2.8236
31329	3.0192
31330	3.2567
31331	2.795
31332	3.3929
31333	2.6902
31334	2.7861
31335	2.7111
31336	7.1028
31337	6.7919
31338	7.2852
31339	7.3832
31340	7.2902
31341	7.4116
31342	7.0964
31343	7.189
31344	7.3416
31345	6.7871
31346	7.0219
31347	7.1807
31348	7.1676
31349	7.32
31350	2.8322
31351	3.3397
31352	4.2043
31353	3.293
31354	4.3631
31355	3.1123
31356	2.8169
31357	2.9921
31358	3.3914
31359	4.5884
31360	2.426
31361	2.9191
31362	4.3981
31363	3.5189
31364	2.7295
31365	2.9641
31366	4.2008
31367	3.5239
31368	4.0967
31369	3.8689
31370	3.076
31371	4.1512
31372	3.8959
31373	3.9451
31374	4.4933
31375	4.5642
31376	3.7207
31377	3.3816
31378	3.3666
31379	3.0972
31380	4.6564
31381	4.2414
31382	4.1871
31383	4.5538
31384	4.3733
31385	2.5848
31386	2.1314
31387	2.3239
31388	3.2086
31389	3.2696
31390	2.0851
31391	2.3723
31392	2.2064
31393	2.8382
31394	2.7592
31395	3.4438
31396	3.1567
31397	3.0682
31398	3.5249
31399	2.793
31400	2.9968
31401	2.9363
31402	2.894
31403	2.6241
31404	3.4211
31405	3.4844
31406	3.3745
31407	3.6437
31408	3.492
31409	3.6898
31410	4.359
31411	4.1613
31412	4.2292
31413	4.1819
31414	4.1355
31415	4.3521
31416	4.1351
31417	4.5203
31418	4.0153
31419	4.2468
31420	4.119
31421	4.1166
31422	4.5171
31423	4.083
31424	4.1019
31425	0.43124
31426	0.47489
31427	0.57647
31428	0.56619
31429	0.61137
31430	0.71832
31431	0.58575
31432	1.3522
31433	1.3845
31434	1.4664
31435	1.6217
31436	3.5828
31437	4.1316
31438	3.3909
31439	4.2328
31440	2.6498
31441	2.9456
31442	3.3705
31443	3.5984
31444	2.0133
31445	4.1172
31446	2.5556
31447	10.213
31448	9.6939
31449	10.47
31450	9.7111
31451	10.457
31452	9.7101
31453	9.8412
31454	10.102
31455	10.051
31456	10.254
31457	9.9649
31458	9.979
31459	6.1399
31460	6.4061
31461	5.9348
31462	6.646
31463	6.625
31464	6.2041
31465	5.9336
31466	5.7451
31467	6.5425
31468	6.1932
31469	5.9332
31470	5.9833
31471	3.1049
31472	2.5946
31473	3.0489
31474	2.7649
31475	3.1965
31476	2.9394
31477	3.0346
31478	2.1514
31479	1.8051
31480	2.784
31481	2.2113
31482	2.7413
31483	1.6498
31484	2.3585
31485	2.182
31486	2.8312
31487	2.7557
31488	2.7273
31489	3.7006
31490	3.2352
31491	3.3239
31492	2.8518
31493	3.4937
31494	3.0205
31495	2.7198
31496	4.2061
31497	3.5685
31498	3.9917
31499	3.4201
31500	4.3087
31501	3.9915
31502	12.017
31503	12.56
31504	12.067
31505	9.3342
31506	12.077
31507	9.2509
31508	11.975
31509	12.501
31510	9.9354
31511	6.3966
31512	8.9301
31513	8.7113
31514	8.529
31515	8.428
31516	10.729
31517	9.583
31518	7.3412
31519	6.8687
31520	6.8222
31521	8.7414
31522	7.5648
31523	6.4793
31524	4.9929
31525	4.5268
31526	4.0998
31527	4.4949
31528	4.8644
31529	4.052
31530	4.3298
31531	4.1207
31532	3.4617
31533	3.7316
31534	3.3159
31535	12.34
31536	12.826
31537	12.994
31538	12.329
31539	12.546
31540	11.625
31541	12.077
31542	12.646
31543	13.158
31544	13.046
31545	12.976
31546	12.641
31547	12.98
31548	13.03
31549	12.488
31550	11.945
31551	4.5412
31552	3.1212
31553	4.5307
31554	2.7899
31555	2.3738
31556	3.0355
31557	3.6383
31558	3.2819
31559	3.7046
31560	3.5098
31561	4.3472
31562	2.7784
31563	2.4637
31564	4.8286
31565	4.0572
31566	4.8086
31567	3.8763
31568	5.274
31569	5.6654
31570	5.7559
31571	6.3052
31572	10.308
31573	11.
31574	13.225
31575	13.214
31576	9.904
31577	12.85
31578	10.035
31579	11.403
31580	10.137
31581	12.945
31582	4.6315
31583	3.7571
31584	4.8363
31585	4.9001
31586	5.4034
31587	2.4783
31588	2.6564
31589	3.4244
31590	4.2334
31591	8.8642e-002
31592	0.1684
31593	5.6645e-002
31594	6.7691e-002
31595	5.0113e-002
31596	4.3528e-002
31597	0.31487
31598	0.11665
31599	5.1627e-002
31600	0.12143
31601	0.25087
31602	0.41426
31603	7.2349e-002
31604	0.19017
31605	4.111
31606	3.6701
31607	3.9949
31608	4.9769
31609	5.0595
31610	3.7748
31611	4.4478
31612	6.0329
31613	4.423
31614	4.6325
31615	3.4376
31616	4.088
31617	3.116
31618	3.696
31619	3.8184
31620	3.8254
31621	4.0529
31622	7.0233
31623	4.9874
31624	5.9531
31625	7.0643
31626	5.9041
31627	6.9025
31628	2.8974
31629	2.3475
31630	2.4176
31631	2.989
31632	3.189
31633	3.1434
31634	3.1074
31635	3.0996
31636	2.9611
31637	2.5873
31638	2.8072
31639	2.9665
31640	2.0966
31641	1.915
31642	4.2878
31643	5.381
31644	5.0429
31645	5.0614
31646	3.4169
31647	3.6071
31648	3.0575
31649	3.2331
31650	2.0241
31651	2.7661
31652	2.9522
31653	2.2834
31654	1.7936
31655	2.7649
31656	1.8362
31657	1.7688
31658	1.7472
31659	1.4093
31660	1.505
31661	1.7051
31662	1.1024
31663	1.7192
31664	1.6531
31665	1.4684
31666	1.6004
31667	1.232
31668	1.11
31669	1.3705
31670	1.5148
31671	0.87541
31672	2.8427
31673	0.81876
31674	0.9863
31675	3.0939
31676	4.2442
31677	4.2136
31678	4.4232
31679	4.4261
31680	4.2392
31681	4.2673
31682	4.2131
31683	4.0068
31684	4.177
31685	4.0522
31686	4.0296
31687	4.0682
31688	4.1245
31689	4.2067
31690	4.0438
31691	4.1387
31692	0.57042
31693	0.49646
31694	0.44476
31695	0.6566
31696	0.64244
31697	1.4552
31698	1.5632
31699	1.1048
31700	1.126
31701	2.6007
31702	2.6817
31703	2.7342
31704	2.529
31705	1.393
31706	1.3778
31707	2.4188
31708	2.2017
31709	1.8356
31710	2.0113
31711	2.9195
31712	2.8961
31713	4.1571
31714	3.5536
31715	5.0543
31716	4.342
31717	4.4055
31718	3.6437
31719	5.3324
31720	5.6862
31721	3.8357
31722	6.6838
31723	5.3677
31724	3.5807
31725	2.6894
31726	3.5826
31727	7.2228
31728	5.1554
31729	4.9908
31730	6.272
31731	6.5802
31732	7.2554
31733	1.9395
31734	2.1367
31735	1.6979
31736	2.4617
31737	0.69547
31738	0.83362
31739	0.77228
31740	0.64643
31741	0.60486
31742	0.57459
31743	2.8046
31744	1.0502
31745	2.8627
31746	2.351
31747	1.9502
31748	0.76833
31749	0.77305
31750	2.5629
31751	2.4474
31752	2.1767
31753	2.8523
31754	2.4022
31755	3.3317
31756	2.9414
31757	2.5954
31758	2.6473
31759	2.8033
31760	1.9725
31761	2.0879
31762	2.6178
31763	2.3836
31764	3.1245
31765	2.3997
31766	2.0716
31767	2.6887
31768	2.3017
31769	4.2806
31770	4.5033
31771	3.7255
31772	3.7622
31773	2.5783
31774	2.7663
31775	2.6167
31776	2.6661
31777	2.5777
31778	3.6699
31779	3.5438
31780	3.4077
31781	2.547
31782	2.2705
31783	1.9914
31784	2.3429
31785	2.5835
31786	2.4664
31787	2.7609
31788	2.7632
31789	2.63
31790	2.7188
31791	2.0788
31792	2.1884
31793	2.2746
31794	1.9285
31795	2.3127
31796	2.4227
31797	1.5927
31798	1.0199
31799	0.69772
31800	2.0225
31801	1.3055
31802	2.2016
31803	0.43002
31804	0.77541
31805	0.74195
31806	0.64338
31807	0.68953
31808	0.94386
31809	1.1432
31810	0.9666
31811	0.50717
31812	0.67521
31813	0.99094
31814	0.85812
31815	1.0168
31816	1.1451
31817	3.921
31818	3.9999
31819	4.2924
31820	4.2809
31821	3.5762
31822	3.6521
31823	0.59718
31824	0.43611
31825	0.35287
31826	0.37235
31827	0.47441
31828	0.74047
31829	0.84013
31830	0.62346
31831	0.49745
31832	0.45326
31833	0.48565
31834	0.61239
31835	0.64543
31836	0.66893
31837	0.36216
31838	0.41792
31839	6.3046
31840	6.3431
31841	6.3026
31842	6.2502
31843	6.5856
31844	6.5046
31845	6.0207
31846	6.3367
31847	6.3106
31848	6.41
31849	6.5047
31850	4.044e-002
31851	3.2174e-002
31852	9.3311e-002
31853	7.9145e-002
31854	7.517e-002
31855	6.7616
31856	6.9405
31857	7.201
31858	7.1729
31859	6.7601
31860	6.4122
31861	6.5184
31862	6.9391
31863	7.2107
31864	6.9859
31865	6.5186
31866	6.6257
31867	6.8203
31868	6.8218
31869	7.0958
31870	6.9649
31871	1.076
31872	0.52304
31873	0.82202
31874	2.4617
31875	1.211
31876	1.863
31877	1.5241
31878	1.529
31879	1.4323
31880	2.0298
31881	1.3065
31882	1.8085
31883	2.1659
31884	2.4681
31885	3.0548
31886	2.2947
31887	2.535
31888	2.6337
31889	3.0569
31890	2.8612
31891	2.1826
31892	1.7975
31893	3.4499
31894	5.3647
31895	5.0179
31896	3.8844
31897	5.1728
31898	4.9922
31899	4.7348
31900	4.8388
31901	4.7875
31902	4.6526
31903	5.0917
31904	5.0445
31905	4.686
31906	4.4563
31907	4.2939
31908	3.6192
31909	3.4099
31910	3.5689
31911	0.75899
31912	0.79711
31913	0.91287
31914	3.3793
31915	3.5434
31916	3.523
31917	3.9433
31918	3.3214
31919	3.3619
31920	2.8364
31921	3.9442
31922	2.8792
31923	2.8593
31924	2.8047
31925	4.1514
31926	4.1502
31927	4.3033
31928	3.429
31929	4.2585
31930	4.4133
31931	4.8484
31932	4.1231
31933	7.1033
31934	7.4946
31935	6.6136
31936	6.1213
31937	6.8718
31938	5.9613
31939	6.0301
31940	6.5448
31941	6.719
31942	7.2954
31943	7.022
31944	6.261
31945	6.0895
31946	6.4929
31947	5.6025
31948	5.5766
31949	6.2584
31950	2.3099
31951	1.8967
31952	2.4235
31953	2.0875
31954	2.4423
31955	2.4822
31956	2.4084
31957	2.4612
31958	2.3822
31959	0.54268
31960	0.626
31961	0.54912
31962	0.37166
31963	0.45102
31964	0.45562
31965	0.50126
31966	0.48668
31967	0.38281
31968	0.39314
31969	0.37966
31970	0.30299
31971	0.23481
31972	0.36836
31973	0.23799
31974	0.29848
31975	16.643
31976	17.887
31977	18.743
31978	17.886
31979	16.642
31980	18.807
31981	3.3906
31982	4.143
31983	3.5954
31984	2.6686
31985	3.603
31986	3.388
31987	2.9621
31988	4.186
31989	3.5151
31990	4.4815
31991	4.0125
31992	2.6084
31993	2.571
31994	2.7342
31995	2.81
31996	2.9359
31997	3.0701
31998	2.9888
31999	2.8243
32000	3.0215
32001	2.8278
32002	3.0885
32003	2.9347
32004	7.0598
32005	7.4425
32006	7.5692
32007	7.0619
32008	7.5145
32009	7.352
32010	7.738
32011	7.4448
32012	7.4887
32013	7.6476
32014	7.5706
32015	7.7698
32016	7.5184
32017	7.6795
32018	7.6575
32019	7.5145
32020	7.6601
32021	7.5162
32022	7.8202
32023	7.843
32024	7.6932
32025	3.2233
32026	3.6497
32027	3.6529
32028	3.2305
32029	3.694
32030	13.07
32031	15.216
32032	14.119
32033	23.237
32034	23.269
32035	18.727
32036	12.242
32037	12.042
32038	12.605
32039	12.622
32040	15.528
32041	14.113
32042	20.295
32043	17.667
32044	17.611
32045	21.528
32046	19.04
32047	19.024
32048	19.057
32049	19.95
32050	15.094
32051	17.028
32052	7.1567
32053	6.9788
32054	8.8674
32055	6.9998
32056	8.2886
32057	10.425
32058	8.0308
32059	5.6867
32060	5.1646
32061	6.3594
32062	6.8314
32063	4.5683
32064	3.6654
32065	3.2462
32066	3.0412
32067	3.3317
32068	6.7147
32069	4.199
32070	4.2995
32071	4.4659
32072	4.7683
32073	5.0968
32074	2.6266
32075	2.3415
32076	7.6348
32077	6.4793
32078	6.4019
32079	9.9999
32080	7.9433
32081	5.0943
32082	7.1589
32083	5.5202
32084	4.948
32085	5.9487
32086	7.3531
32087	8.3215
32088	11.282
32089	10.88
32090	11.83
32091	11.832
32092	11.285
32093	10.856
32094	11.864
32095	11.861
32096	1.0217
32097	1.7283
32098	1.4042
32099	1.8408
32100	2.8025
32101	2.7075
32102	3.4094
32103	4.2051
32104	3.4189
32105	2.605
32106	3.2142
32107	4.0764
32108	4.0223
32109	3.5987
32110	4.0367
32111	12.959
32112	13.677
32113	13.06
32114	12.919
32115	12.353
32116	13.821
32117	12.287
32118	12.9
32119	11.92
32120	12.256
32121	13.041
32122	13.667
32123	14.151
32124	4.3363
32125	4.1049
32126	4.4207
32127	3.5717
32128	3.4787
32129	4.0467
32130	3.4558
32131	2.7975
32132	3.658
32133	4.349
32134	3.2528
32135	2.8482
32136	3.2273
32137	2.8463
32138	2.8973
32139	2.5408
32140	2.404
32141	0.93543
32142	0.77577
32143	0.78984
32144	0.83264
32145	3.0628
32146	2.6929
32147	4.0292
32148	2.9722
32149	3.8824
32150	3.7232
32151	3.2487
32152	4.3466
32153	3.6517
32154	4.8238
32155	5.2608
32156	2.8125
32157	2.9058
32158	3.2597
32159	2.7873
32160	3.5323
32161	1.9365
32162	2.1447
32163	1.6555
32164	1.6087
32165	2.932
32166	3.0936
32167	3.1356
32168	2.8377
32169	1.7372
32170	2.2849
32171	2.5442
32172	0.70198
32173	0.52577
32174	0.5825
32175	0.61983
32176	0.55525
32177	0.64048
32178	2.6756
32179	1.9969
32180	2.8045
32181	3.2698
32182	3.42
32183	2.5742
32184	1.0772
32185	2.5083
32186	0.916
32187	0.94207
32188	2.6806
32189	2.1562
32190	2.0395
32191	2.2279
32192	2.4033
32193	2.3754
32194	5.4725
32195	5.5536
32196	5.5628
32197	5.4338
32198	5.6894
32199	5.6787
32200	5.6781
32201	5.7446
32202	5.7406
32203	5.8574
32204	6.3412
32205	6.5565
32206	6.0749
32207	6.2527
32208	5.7789
32209	5.9222
32210	5.983
32211	5.7821
32212	6.2628
32213	6.5253
32214	5.8929
32215	5.9314
32216	6.1975
32217	7.1137
32218	6.5637
32219	7.3301
32220	7.332
32221	7.8145
32222	8.0564
32223	7.6704
32224	7.8169
32225	8.0139
32226	6.6419
32227	7.1154
32228	8.0044
32229	8.0895
32230	7.6718
32231	13.703
32232	14.184
32233	12.96
32234	13.26
32235	13.228
32236	13.843
32237	13.011
32238	13.196
32239	12.915
32240	12.298
32241	12.552
32242	12.322
32243	13.081
32244	13.213
32245	13.114
32246	13.095
32247	12.282
32248	11.98
32249	13.305
32250	13.39
32251	3.8414
32252	3.3959
32253	5.2941
32254	4.4256
32255	3.6724
32256	4.2357
32257	7.4096
32258	7.3557
32259	2.5414
32260	3.5885
32261	5.1779
32262	6.5563
32263	5.5487
32264	6.3847
32265	1.4772
32266	2.2867
32267	5.5203
32268	2.7201
32269	3.5583
32270	6.5189
32271	6.657
32272	6.909
32273	6.6968
32274	6.5027
32275	7.2646
32276	6.8544
32277	6.1278
32278	2.7684
32279	4.3466
32280	6.0855
32281	5.7881
32282	6.3223
32283	4.0072
32284	6.0139
32285	6.883
32286	5.1602
32287	8.5276
32288	2.3837
32289	2.5548
32290	3.597
32291	2.9069
32292	3.807
32293	3.4428
32294	3.601
32295	2.9651
32296	0.16999
32297	0.22641
32298	8.71e-002
32299	0.10664
32300	0.20229
32301	0.14742
32302	0.35381
32303	0.30603
32304	0.14623
32305	0.1419
32306	0.14145
32307	9.1285e-002
32308	0.28738
32309	0.21442
32310	8.3035e-002
32311	4.7311e-002
32312	6.4792e-002
32313	2.9085e-002
32314	5.225e-002
32315	3.676e-002
32316	2.442
32317	2.0399
32318	1.8389
32319	1.4671
32320	2.8596
32321	1.7352
32322	1.6865
32323	2.4449
32324	2.0026
32325	1.2308
32326	1.3111
32327	3.3284
32328	3.2772
32329	3.0515
32330	2.7471
32331	2.2282
32332	1.3137
32333	1.1026
32334	2.1615
32335	2.0588
32336	1.6473
32337	3.5874
32338	4.8566
32339	4.3988
32340	4.9531
32341	3.0517
32342	4.4263
32343	3.3557
32344	2.982
32345	5.2617
32346	4.7641
32347	1.7556
32348	1.8716
32349	2.1983
32350	1.8273
32351	2.9296
32352	0.88513
32353	0.84078
32354	0.86455
32355	0.81479
32356	0.79478
32357	0.82338
32358	0.7944
32359	0.80773
32360	0.92727
32361	0.87365
32362	0.88344
32363	0.85293
32364	0.80975
32365	0.81212
32366	9.4622e-002
32367	6.8439e-002
32368	5.4565e-002
32369	4.8334e-002
32370	9.5714e-002
32371	7.0246e-002
32372	3.9106e-002
32373	3.9216e-002
32374	5.839e-002
32375	0.6753
32376	0.70461
32377	0.74427
32378	0.71357
32379	0.71983
32380	0.6849
32381	0.66645
32382	0.71055
32383	0.60252
32384	0.61653
32385	0.62818
32386	0.64549
32387	0.60165
32388	0.61256
32389	0.55011
32390	0.7275
32391	0.66406
32392	0.57417
32393	0.62279
32394	0.70884
32395	0.67441
32396	0.69978
32397	0.49252
32398	0.48083
32399	0.54125
32400	0.73974
32401	0.78653
32402	0.59015
32403	1.2646
32404	2.9381
32405	1.1713
32406	2.4693
32407	1.9536
32408	1.1537
32409	2.1777
32410	1.5996
32411	2.3548
32412	2.4595
32413	2.846
32414	2.8849
32415	2.6533
32416	2.9588
32417	3.2061
32418	2.9156
32419	2.692
32420	2.3346
32421	3.0825
32422	2.7763
32423	4.0354
32424	2.7993
32425	3.8713
32426	3.5178
32427	3.6581
32428	3.8513
32429	0.67868
32430	0.533
32431	0.51818
32432	0.63667
32433	0.58315
32434	0.62066
32435	0.68119
32436	8.8526
32437	9.4407
32438	6.9395
32439	5.0213
32440	5.2021
32441	6.9946
32442	10.376
32443	12.927
32444	11.013
32445	8.9372
32446	1.4926
32447	2.3805
32448	1.8354
32449	1.6782
32450	1.8377
32451	1.4621
32452	1.6304
32453	2.8356
32454	2.274
32455	1.4727
32456	4.4449
32457	6.1349
32458	5.4278
32459	5.6982
32460	4.7141
32461	5.5156
32462	5.8026
32463	4.9613
32464	4.7493
32465	4.5024
32466	4.5778
32467	6.3333
32468	6.6914
32469	6.0003
32470	6.5975
32471	5.3003
32472	6.582
32473	7.1355
32474	7.5185
32475	6.1627
32476	6.9047
32477	7.3357
32478	7.064
32479	6.5539
32480	6.0352
32481	5.9262
32482	6.478
32483	6.5555
32484	6.1412
32485	2.9618
32486	3.2531
32487	3.3746
32488	3.3604
32489	2.9806
32490	2.7052
32491	2.7043
32492	2.8701
32493	3.2604
32494	2.8279
32495	3.2623
32496	3.499
32497	3.3439
32498	2.9244
32499	2.8959
32500	2.186
32501	2.0101
32502	1.5695
32503	2.7402
32504	2.7347
32505	2.8208
32506	3.0585
32507	2.8212
32508	2.9128
32509	2.6918
32510	2.233
32511	2.3431
32512	3.3565
32513	3.5594
32514	4.1034
32515	4.0898
32516	3.5768
32517	2.6194
32518	3.3374
32519	2.9183
32520	4.1901
32521	1.9646
32522	2.5292
32523	1.6335
32524	2.5277
32525	2.8292
32526	2.8354
32527	2.1281
32528	4.6156
32529	4.3226
32530	4.6201
32531	4.9827
32532	4.2683
32533	3.9099
32534	3.9271
32535	3.8823
32536	3.8794
32537	4.0575
32538	4.0481
32539	4.3046
32540	3.8028
32541	3.7641
32542	3.8633
32543	4.3021
32544	3.4425
32545	3.4035
32546	3.0547
32547	3.0246
32548	3.7081
32549	3.7122
32550	3.4685
32551	3.6162
32552	3.6511
32553	3.3358
32554	3.6854
32555	2.9526
32556	2.8576
32557	3.0423
32558	3.5934
32559	4.0855
32560	4.4878
32561	3.86
32562	3.8856
32563	4.5662
32564	4.2117
32565	3.2529
32566	3.2961
32567	4.0276
32568	3.3063
32569	4.2105
32570	3.6767
32571	4.4328
32572	4.0224
32573	3.6406
32574	20.221
32575	21.398
32576	18.937
32577	17.578
32578	17.604
32579	18.986
32580	19.874
32581	18.952
32582	18.926
32583	17.006
32584	19.522
32585	18.685
32586	18.696
32587	19.424
32588	16.599
32589	17.838
32590	17.954
32591	18.758
32592	16.597
32593	17.837
32594	18.695
32595	18.941
32596	17.954
32597	18.879
32598	2.6372
32599	2.3335
32600	2.1276
32601	2.1958
32602	1.9874
32603	1.557
32604	1.7179
32605	2.802
32606	2.654
32607	2.0163
32608	1.7191
32609	1.6427
32610	1.3958
32611	1.4405
32612	1.2137
32613	4.0017
32614	4.1093
32615	3.7421
32616	3.6535
32617	3.7022
32618	5.4904
32619	5.9353
32620	4.7011
32621	4.9152
32622	4.4407
32623	3.8749
32624	4.2358
32625	5.9999
32626	4.5542
32627	4.6854
32628	6.1438
32629	6.4935
32630	5.9305
32631	5.8709
32632	4.9278
32633	5.1787
32634	5.2591
32635	2.8216e-002
32636	7.8862e-002
32637	5.4999e-002
32638	3.1104e-002
32639	5.6059e-002
32640	3.8257e-002
32641	0.10507
32642	4.3511e-002
32643	3.1466e-002
32644	4.4828e-002
32645	8.9386e-002
32646	3.256e-002
32647	4.8716e-002
32648	3.9642e-002
32649	2.9966e-002
32650	4.617e-002
32651	3.4654e-002
32652	6.0057e-002
32653	3.4473e-002
32654	3.0756
32655	2.4958
32656	2.3126
32657	2.7772
32658	3.2467
32659	2.8607
32660	3.4565
32661	3.0704
32662	2.5929
32663	2.5242
32664	2.9592
32665	3.3382
32666	3.2057
32667	3.3416
32668	3.0844
32669	3.3635
32670	0.58836
32671	0.61206
32672	0.83926
32673	1.7732
32674	2.2253
32675	1.1263
32676	0.78321
32677	3.0425
32678	3.0323
32679	3.027
32680	2.2385
32681	0.68508
32682	0.81256
32683	0.95456
32684	0.9567
32685	1.8954
32686	2.2704
32687	2.1427
32688	2.099
32689	1.9493
32690	2.3091
32691	1.6485
32692	1.9738
32693	1.8642
32694	2.4069
32695	2.0068
32696	2.3911
32697	1.9678
32698	2.1856
32699	2.0773
32700	0.98254
32701	1.0812
32702	0.92095
32703	0.99307
32704	0.89683
32705	0.8104
32706	0.84352
32707	0.61722
32708	0.76803
32709	1.1123
32710	1.0201
32711	1.0452
32712	0.74432
32713	0.67327
32714	1.109
32715	1.1446
32716	0.47905
32717	0.14695
32718	0.4175
32719	0.2541
32720	0.18324
32721	0.16527
32722	0.18982
32723	0.13384
32724	0.22975
32725	0.21615
32726	0.41249
32727	0.25911
32728	0.37409
32729	0.57246
32730	1.2679
32731	0.80313
32732	3.0635
32733	2.1472
32734	2.9673
32735	0.65116
32736	0.68275
32737	2.9726
32738	1.9369
32739	2.9245
32740	1.4197
32741	2.0935
32742	0.80318
32743	0.72403
32744	0.5768
32745	0.58604
32746	0.68211
32747	0.81929
32748	5.549
32749	3.7898
32750	4.1654
32751	2.8916
32752	3.1535
32753	3.5515
32754	2.6009
32755	3.1923
32756	5.8367
32757	4.6353
32758	5.9925
32759	4.7708
32760	5.651
32761	4.3387
32762	5.5212
32763	3.3526
32764	3.8184
32765	3.4565
32766	3.4474
32767	3.459
32768	3.8191
32769	3.3374
32770	3.3306
32771	3.4558
32772	3.2629
32773	2.8548
32774	2.9163
32775	3.3336
32776	3.3322
32777	2.9378
32778	2.9536
32779	3.7803
32780	3.588
32781	3.2935
32782	3.5295
32783	3.3262
32784	4.0741
32785	3.9935
32786	3.5055
32787	3.7069
32788	3.5588
32789	3.7394
32790	4.5194
32791	4.853
32792	3.5807
32793	3.3027
32794	4.6425
32795	4.1322
32796	4.2479
32797	4.0862
32798	4.1002
32799	4.2696
32800	4.2817
32801	4.0436
32802	4.1717
32803	4.3724
32804	4.3474
32805	4.6585
32806	4.0086
32807	5.1946
32808	5.3687
32809	4.8997
32810	5.2242
32811	4.7191
32812	5.2332
32813	5.5133
32814	4.9113
32815	4.4662
32816	5.04
32817	4.5131
32818	3.9764
32819	3.1301
32820	2.7593
32821	2.719
32822	3.3241
32823	2.9148
32824	3.1266
32825	3.026
32826	3.1722
32827	2.8346
32828	5.5246
32829	5.1743
32830	5.1562
32831	5.4387
32832	5.6176
32833	5.7047
32834	5.0221
32835	5.0377
32836	3.735
32837	4.7643
32838	4.6379
32839	4.4408
32840	0.55934
32841	0.67731
32842	0.42188
32843	0.64116
32844	0.70383
32845	0.37561
32846	0.34435
32847	0.52217
32848	0.45007
32849	0.69596
32850	0.76929
32851	0.58928
32852	0.5512
32853	2.2949
32854	2.5806
32855	3.1367
32856	3.3101
32857	3.1232
32858	3.4657
32859	2.8452
32860	3.1578
32861	3.213
32862	3.1087
32863	19.016
32864	21.513
32865	20.269
32866	17.561
32867	18.676
32868	18.937
32869	17.006
32870	19.891
32871	18.985
32872	15.087
32873	16.92
32874	19.54
32875	14.945
32876	18.119
32877	10.425
32878	10.303
32879	10.103
32880	10.248
32881	9.9459
32882	9.915
32883	10.056
32884	9.9273
32885	10.259
32886	10.129
32887	9.9787
32888	10.178
32889	10.084
32890	9.9794
32891	10.746
32892	10.502
32893	1.0613
32894	1.1517
32895	1.0773
32896	0.98371
32897	0.92309
32898	1.0302
32899	0.89936
32900	0.97306
32901	0.72978
32902	0.72188
32903	0.73309
32904	0.82244
32905	0.83152
32906	0.80666
32907	0.81247
32908	0.90865
32909	4.5033
32910	4.234
32911	3.225
32912	4.7229
32913	3.6379
32914	4.2532
32915	4.5456
32916	3.001
32917	2.2887
32918	2.7768
32919	2.1058
32920	1.8187
32921	3.0206
32922	0.97161
32923	0.42808
32924	0.84823
32925	0.24828
32926	0.19667
32927	0.21281
32928	0.22202
32929	0.22637
32930	3.1864
32931	1.0152
32932	3.3166
32933	2.4907
32934	3.2962
32935	2.5346
32936	1.1776
32937	2.0035
32938	5.9981
32939	4.5665
32940	6.1681
32941	5.7255
32942	5.7511
32943	4.2324
32944	6.0026
32945	6.9667
32946	6.0569
32947	7.5573
32948	2.531
32949	2.2252
32950	2.3385
32951	2.4774
32952	2.2739
32953	0.81216
32954	0.73556
32955	0.68323
32956	0.84552
32957	0.91044
32958	0.79766
32959	0.85607
32960	0.70356
32961	0.67103
32962	0.82823
32963	0.80056
32964	0.77802
32965	0.7931
32966	0.91467
32967	0.83743
32968	1.2128
32969	1.8505
32970	1.817
32971	1.2689
32972	1.287
32973	2.4751
32974	2.0538
32975	1.3342
32976	1.0894
32977	1.3763
32978	1.4532
32979	1.0475
32980	0.84325
32981	0.73223
32982	0.85019
32983	1.6351
32984	1.7691
32985	1.7279
32986	2.8549
32987	1.6931
32988	2.7745
32989	2.0247
32990	2.48
32991	2.0249
32992	2.162
32993	2.1683
32994	2.4255
32995	1.3444
32996	1.3324
32997	1.3824
32998	1.6072
32999	2.0182
33000	2.5944
33001	2.7713
33002	2.6953
33003	2.6962
33004	2.4705
33005	2.6471
33006	2.34
33007	0.77612
33008	0.56372
33009	0.75272
33010	0.70166
33011	0.38498
33012	0.41871
33013	0.50264
33014	0.44501
33015	0.49344
33016	0.67256
33017	0.59462
33018	0.66335
33019	0.50068
33020	0.4961
33021	0.49965
33022	0.51458
33023	0.71051
33024	0.71746
33025	0.61972
33026	0.63223
33027	0.5666
33028	0.63188
33029	0.56741
33030	0.47935
33031	0.43245
33032	0.50268
33033	0.4602
33034	0.98744
33035	0.68695
33036	1.5462
33037	1.2202
33038	0.81602
33039	0.5907
33040	1.6593
33041	0.9399
33042	1.1584
33043	1.7435
33044	0.57769
33045	0.74184
33046	2.1147
33047	2.8706
33048	2.805
33049	1.9881
33050	0.99806
33051	0.67964
33052	0.58946
33053	0.7388
33054	0.73864
33055	0.77323
33056	1.253
33057	1.3421
33058	1.2284
33059	1.397
33060	1.3467
33061	1.546
33062	4.348
33063	4.1778
33064	4.2874
33065	4.4829
33066	4.5752
33067	4.59
33068	4.1128
33069	3.8814
33070	3.8979
33071	3.9674
33072	2.0368
33073	3.0652
33074	4.1827
33075	2.6836
33076	1.7709
33077	1.6402
33078	1.775
33079	1.6744
33080	4.2575
33081	7.5648
33082	7.366
33083	6.8805
33084	7.56
33085	7.9836
33086	7.9729
33087	7.9761
33088	7.5587
33089	7.3662
33090	7.9867
33091	7.5638
33092	7.7589
33093	7.3369
33094	7.9704
33095	7.7846
33096	6.8809
33097	7.1146
33098	6.8159
33099	7.1146
33100	7.9726
33101	7.7857
33102	7.1442
33103	7.5926
33104	7.1575
33105	7.5755
33106	6.882
33107	6.639
33108	7.7768
33109	7.5946
33110	7.7644
33111	7.5767
33112	7.9721
33113	7.7786
33114	7.9779
33115	7.1368
33116	6.6331
33117	6.8952
33118	7.7893
33119	7.5931
33120	7.9831
33121	7.7912
33122	7.594
33123	7.1374
33124	6.8721
33125	7.9849
33126	7.7853
33127	7.5031
33128	6.9785
33129	7.7574
33130	7.7595
33131	7.5479
33132	7.5051
33133	7.0496
33134	6.9808
33135	6.7479
33136	6.4808
33137	8.007
33138	7.9545
33139	7.7516
33140	7.9673
33141	7.7633
33142	6.4813
33143	10.527
33144	8.3204
33145	6.4237
33146	7.5318
33147	7.4017
33148	10.439
33149	7.9696
33150	9.665
33151	13.628
33152	5.3736
33153	5.7147
33154	9.5272
33155	13.503
33156	10.233
33157	13.749
33158	13.486
33159	9.8226
33160	11.7
33161	5.1748
33162	9.8035
33163	9.1108
33164	12.208
33165	12.03
33166	8.9219
33167	5.4111
33168	9.5954
33169	9.4935
33170	6.8312
33171	12.373
33172	13.825
33173	13.465
33174	5.9711
33175	7.2435
33176	5.2184
33177	8.607
33178	4.9383
33179	6.0271
33180	6.795
33181	5.6662
33182	4.5252
33183	8.3157
33184	5.7369
33185	4.3928
33186	6.6182
33187	4.2645
33188	4.4022
33189	5.891
33190	5.7824
33191	5.8897
33192	5.0593
33193	4.19
33194	4.4791
33195	6.5683
33196	8.6483
33197	8.6733
33198	9.9257
33199	9.363
33200	4.9738
33201	4.0777
33202	5.1003
33203	4.955
33204	4.7462
33205	4.7853
33206	3.526
33207	3.5342
33208	4.
33209	3.2324
33210	2.9409
33211	3.5801
33212	4.4474
33213	2.674
33214	3.0369
33215	3.1551
33216	3.8577
33217	4.5599
33218	4.5055
33219	4.4751
33220	13.208
33221	13.603
33222	14.092
33223	14.338
33224	13.969
33225	13.214
33226	12.585
33227	13.807
33228	14.476
33229	13.805
33230	13.612
33231	12.596
33232	12.584
33233	12.206
33234	12.243
33235	11.084
33236	11.092
33237	12.266
33238	10.679
33239	11.488
33240	11.494
33241	12.222
33242	10.691
33243	10.571
33244	11.656
33245	11.081
33246	11.662
33247	0.57752
33248	0.59504
33249	0.56385
33250	0.56785
33251	0.5388
33252	0.54394
33253	2.6943
33254	2.0873
33255	2.4961
33256	2.8645
33257	1.9741
33258	1.1246
33259	1.0803
33260	1.1204
33261	1.1424
33262	1.1474
33263	1.1419
33264	2.0358
33265	3.0075
33266	3.0244
33267	2.9211
33268	1.57
33269	2.086
33270	0.67152
33271	0.6442
33272	0.68519
33273	1.1389
33274	1.1234
33275	1.131
33276	1.1316
33277	0.60834
33278	0.63405
33279	0.6061
33280	2.0235
33281	2.1661
33282	1.9206
33283	1.6677
33284	1.624
33285	1.6261
33286	1.5569
33287	1.6411
33288	1.5767
33289	1.1543
33290	1.136
33291	1.1571
33292	1.1533
33293	1.164
33294	1.1385
33295	0.44492
33296	0.40229
33297	0.44078
33298	0.29437
33299	0.36386
33300	0.57603
33301	0.58281
33302	0.58907
33303	0.57032
33304	2.6741
33305	2.0762
33306	2.5375
33307	1.9689
33308	2.6587
33309	2.1104
33310	2.3955
33311	2.0174
33312	2.907
33313	1.7367
33314	1.0458
33315	1.072
33316	1.0773
33317	0.95887
33318	1.1218
33319	1.0691
33320	1.1415
33321	1.128
33322	1.14
33323	0.68498
33324	0.65801
33325	0.65458
33326	0.63946
33327	0.68899
33328	0.61563
33329	0.54311
33330	0.60155
33331	0.53023
33332	1.6223
33333	1.5546
33334	1.6709
33335	1.5031
33336	1.6343
33337	0.6026
33338	0.5934
33339	0.60871
33340	0.60511
33341	1.6748
33342	1.6621
33343	1.6429
33344	1.6353
33345	0.73909
33346	0.77521
33347	0.69045
33348	0.77988
33349	0.74959
33350	0.65929
33351	0.80886
33352	0.19362
33353	0.18007
33354	0.2366
33355	2.1771
33356	1.9147
33357	2.0308
33358	1.4299
33359	1.4426
33360	1.4896
33361	1.37
33362	1.4016
33363	1.4717
33364	0.58081
33365	0.60747
33366	0.59494
33367	0.62064
33368	0.59019
33369	0.60088
33370	0.5968
33371	0.62107
33372	0.58122
33373	0.4023
33374	0.61868
33375	0.64814
33376	0.6304
33377	0.67455
33378	0.51301
33379	0.54449
33380	0.9917
33381	0.96072
33382	0.67933
33383	0.78229
33384	0.89054
33385	0.84511
33386	0.87477
33387	0.8158
33388	1.5731
33389	1.6152
33390	1.5974
33391	1.5289
33392	1.5893
33393	1.5102
33394	1.141
33395	1.1185
33396	1.1226
33397	1.1524
33398	1.0447
33399	1.4049
33400	1.4943
33401	1.3616
33402	1.3945
33403	1.2556
33404	1.4592
33405	0.59563
33406	0.59943
33407	0.78298
33408	0.7605
33409	0.77835
33410	0.72866
33411	1.4897
33412	1.4194
33413	1.544
33414	1.3992
33415	1.1531
33416	1.1621
33417	1.1533
33418	1.1143
33419	1.1547
33420	1.039
33421	1.0776
33422	0.96203
33423	0.99274
33424	1.1067
33425	1.8348
33426	1.7583
33427	1.8532
33428	0.58958
33429	0.61932
33430	0.62851
33431	1.7242
33432	2.022
33433	1.6419
33434	2.4637
33435	1.728
33436	1.0031
33437	0.96133
33438	0.96357
33439	2.0619
33440	2.6231
33441	2.9256
33442	1.7122
33443	2.8686
33444	1.6771
33445	1.9442
33446	0.58804
33447	0.56874
33448	0.60881
33449	0.54666
33450	0.57407
33451	1.1411
33452	1.1269
33453	1.1362
33454	1.1272
33455	1.1476
33456	1.1451
33457	1.1647
33458	1.1675
33459	1.148
33460	1.0747
33461	2.0517
33462	1.7136
33463	2.4558
33464	2.7461
33465	2.3037
33466	1.9026
33467	2.1224
33468	1.8649
33469	2.1199
33470	2.2772
33471	0.73965
33472	0.67595
33473	0.69851
33474	0.67518
33475	0.64072
33476	0.66188
33477	0.67621
33478	0.66502
33479	0.62665
33480	0.62466
33481	0.63949
33482	0.63111
33483	1.4954
33484	1.3473
33485	1.3682
33486	1.4326
33487	1.4479
33488	1.0751
33489	1.1206
33490	1.0395
33491	1.5005
33492	1.4266
33493	1.5097
33494	1.5559
33495	1.3961
33496	1.5519
33497	0.90711
33498	0.87493
33499	0.92255
33500	0.84929
33501	1.162
33502	1.143
33503	1.1832
33504	1.1323
33505	1.1862
33506	0.7471
33507	0.70886
33508	0.75918
33509	0.68157
33510	0.61441
33511	0.77098
33512	0.74881
33513	0.69285
33514	0.75348
33515	0.71442
33516	1.8072
33517	1.8441
33518	1.7362
33519	1.7814
33520	1.6645
33521	1.6433
33522	1.5038
33523	0.58427
33524	0.70566
33525	0.73676
33526	1.5356
33527	1.4872
33528	1.5214
33529	1.5747
33530	1.4699
33531	1.6148
33532	0.90713
33533	0.93192
33534	0.86712
33535	0.92793
33536	0.83435
33537	0.89853
33538	0.81272
33539	0.67984
33540	0.60031
33541	1.1981
33542	1.2116
33543	1.1628
33544	1.2453
33545	1.1995
33546	1.1573
33547	1.1856
33548	0.9043
33549	0.86327
33550	0.89075
33551	0.94592
33552	0.82637
33553	1.5575
33554	1.5971
33555	1.5121
33556	1.5609
33557	1.5976
33558	1.4987
33559	0.70667
33560	1.0856
33561	0.61413
33562	0.60617
33563	1.1635
33564	1.1767
33565	1.1462
33566	1.1329
33567	1.073
33568	0.86312
33569	0.96484
33570	0.97689
33571	1.0086
33572	1.008
33573	1.0229
33574	1.0123
33575	1.0487
33576	0.89938
33577	1.0872
33578	1.0481
33579	0.91367
33580	1.007
33581	1.1323
33582	1.0784
33583	1.5125
33584	1.7723
33585	1.3009
33586	1.3048
33587	0.84829
33588	1.5037
33589	1.3801
33590	1.4151
33591	1.1818
33592	1.4325
33593	1.0692
33594	1.6929
33595	1.6202
33596	1.1409
33597	1.6519
33598	1.6355
33599	1.5246
33600	1.651
33601	0.81988
33602	0.84286
33603	0.87918
33604	0.88863
33605	0.99487
33606	0.9865
33607	1.0528
33608	1.0097
33609	0.79813
33610	0.86785
33611	1.074
33612	1.0508
33613	0.98113
33614	0.90358
33615	0.74878
33616	0.7705
33617	0.81031
33618	0.77668
33619	0.75223
33620	1.003
33621	0.99884
33622	1.1453
33623	1.1252
33624	1.1721
33625	1.2035
33626	1.1644
33627	1.2473
33628	1.0668
33629	1.1051
33630	0.83118
33631	0.94306
33632	1.091
33633	1.0684
33634	1.235
33635	1.1802
33636	1.1302
33637	1.2091
33638	1.0277
33639	1.1527
33640	1.1616
33641	1.1396
33642	1.0987
33643	1.4569
33644	1.5044
33645	1.2008
33646	1.4611
33647	0.38181
33648	0.41946
33649	0.53314
33650	0.4908
33651	0.5468
33652	1.4373
33653	1.0144
33654	1.2484
33655	1.1531
33656	0.9231
33657	1.2193
33658	1.979
33659	0.74218
33660	0.77065
33661	0.74375
33662	0.65177
33663	0.75196
33664	0.66169
33665	0.81082
33666	0.78021
33667	0.88785
33668	0.90833
33669	0.89834
33670	0.86515
33671	0.76556
33672	1.235
33673	1.3421
33674	1.1822
33675	1.3224
33676	1.3842
33677	1.3577
33678	1.6598
33679	1.6392
33680	1.6674
33681	1.5258
33682	1.6441
33683	1.6833
33684	1.6207
33685	1.5929
33686	1.3095
33687	1.3602
33688	1.4141
33689	1.2998
33690	0.49566
33691	0.5388
33692	0.43755
33693	0.39492
33694	0.5336
33695	0.44883
33696	2.2873
33697	2.0281
33698	1.7656
33699	1.7977
33700	1.7234
33701	1.5878
33702	1.1288
33703	1.3403
33704	1.0807
33705	1.7219
33706	1.7465
33707	1.7994
33708	1.6813
33709	1.7241
33710	1.5862
33711	1.3752
33712	1.4135
33713	1.5643
33714	1.6627
33715	1.4847
33716	1.5803
33717	1.6241
33718	1.7216
33719	1.6288
33720	1.565
33721	0.84834
33722	0.82672
33723	0.83261
33724	0.78312
33725	0.80206
33726	0.82284
33727	0.73314
33728	1.1421
33729	1.1551
33730	1.0951
33731	1.1459
33732	1.0908
33733	0.5235
33734	0.76757
33735	0.67855
33736	0.69223
33737	0.78478
33738	0.78794
33739	0.8442
33740	1.4863
33741	1.4275
33742	1.5839
33743	1.2973
33744	1.3662
33745	1.2358
33746	1.2657
33747	1.3445
33748	1.3278
33749	1.3334
33750	1.3787
33751	1.4317
33752	1.3868
33753	1.2043
33754	1.052
33755	0.55307
33756	0.57349
33757	0.64178
33758	0.70737
33759	0.65042
33760	0.80258
33761	0.64799
33762	1.1811
33763	1.1719
33764	1.1274
33765	1.0281
33766	1.1666
33767	1.1644
33768	1.1592
33769	1.1354
33770	1.1448
33771	1.1597
33772	1.1434
33773	1.0648
33774	1.0778
33775	0.62785
33776	0.9645
33777	1.1794
33778	1.1843
33779	1.1519
33780	0.86027
33781	0.68514
33782	0.71112
33783	1.0269
33784	1.2138
33785	1.2097
33786	1.0936
33787	0.91326
33788	1.6511
33789	1.6172
33790	1.4638
33791	1.4335
33792	1.3582
33793	1.3837
33794	1.289
33795	0.65128
33796	0.63043
33797	0.61663
33798	0.62665
33799	0.63337
33800	0.58777
33801	0.49491
33802	0.53361
33803	0.54741
33804	0.55526
33805	0.54531
33806	0.58598
33807	0.55137
33808	0.56035
33809	0.57544
33810	0.57739
33811	0.55642
33812	0.5136
33813	0.64034
33814	0.61068
33815	0.57971
33816	0.65107
33817	0.60717
33818	0.95893
33819	0.92895
33820	0.88308
33821	0.93158
33822	0.53872
33823	0.64113
33824	0.62827
33825	0.62183
33826	0.56194
33827	0.61719
33828	0.55123
33829	0.64547
33830	0.60246
33831	0.62803
33832	0.56539
33833	0.64963
33834	0.60416
33835	1.8428
33836	1.8583
33837	1.7715
33838	1.9441
33839	1.7889
33840	2.4728
33841	1.2571
33842	1.603
33843	1.7538
33844	1.8831
33845	2.6627
33846	2.1798
33847	1.0984
33848	0.87581
33849	1.056
33850	1.1256
33851	1.0588
33852	1.0676
33853	1.0451
33854	0.45426
33855	0.71378
33856	0.68004
33857	0.6715
33858	0.62921
33859	0.58174
33860	0.44967
33861	0.48569
33862	0.44215
33863	0.48096
33864	0.41523
33865	0.52492
33866	0.53199
33867	0.56391
33868	0.61448
33869	0.55566
33870	0.51124
33871	0.56689
33872	0.61011
33873	0.57623
33874	0.59984
33875	0.53534
33876	0.61643
33877	0.54886
33878	2.8268
33879	1.8994
33880	2.8104
33881	2.7486
33882	2.2639
33883	1.585
33884	1.3286
33885	1.3984
33886	1.3741
33887	1.3385
33888	1.169
33889	0.98886
33890	1.3837
33891	1.1984
33892	1.2097
33893	1.0784
33894	0.91094
33895	1.0291
33896	0.95399
33897	0.98979
33898	0.9832
33899	0.67677
33900	0.57016
33901	0.73544
33902	0.59315
33903	0.75486
33904	0.71573
33905	0.73304
33906	0.81166
33907	1.2505
33908	1.0994
33909	1.1269
33910	1.1435
33911	1.0507
33912	1.0741
33913	0.96314
33914	1.1843
33915	1.0801
33916	0.97192
33917	0.91155
33918	2.9925
33919	3.0069
33920	2.1149
33921	2.0297
33922	2.8295
33923	2.1481
33924	1.7094
33925	1.7665
33926	1.2926
33927	1.3541
33928	1.3591
33929	1.2097
33930	1.0708
33931	1.4358
33932	1.4388
33933	1.4364
33934	1.5007
33935	1.5235
33936	1.5521
33937	0.51991
33938	0.75605
33939	0.70207
33940	0.67064
33941	0.5868
33942	0.72122
33943	0.78594
33944	0.73349
33945	0.69931
33946	0.60644
33947	0.49622
33948	0.47366
33949	0.52794
33950	0.48407
33951	0.47852
33952	0.54947
33953	0.51045
33954	0.50291
33955	0.43729
33956	1.684
33957	1.6722
33958	1.636
33959	1.6911
33960	1.6242
33961	1.6635
33962	0.83902
33963	1.148
33964	1.0502
33965	1.1296
33966	1.019
33967	0.98233
33968	0.9516
33969	0.80468
33970	1.0658
33971	1.1405
33972	1.1541
33973	1.0731
33974	0.85011
33975	0.94641
33976	1.1958
33977	1.198
33978	1.1584
33979	1.0477
33980	1.1542
33981	1.1803
33982	1.0964
33983	0.93469
33984	1.1829
33985	0.98949
33986	1.098
33987	1.168
33988	1.0245
33989	1.1446
33990	1.0211
33991	1.2486
33992	1.3353
33993	1.1928
33994	1.3693
33995	1.1998
33996	1.3977
33997	1.4103
33998	1.0931
33999	1.1858
34000	0.9935
34001	0.84046
34002	1.1216
34003	0.6756
34004	0.75199
34005	1.0652
34006	0.88055
34007	1.273
34008	1.2139
34009	1.2083
34010	1.148
34011	1.2552
34012	1.2161
34013	1.2431
34014	1.201
34015	0.86033
34016	0.99476
34017	0.8135
34018	0.71737
34019	1.2932
34020	1.2287
34021	0.55394
34022	0.56747
34023	0.45864
34024	0.5223
34025	0.49099
34026	0.58679
34027	0.50734
34028	1.3763
34029	1.6147
34030	1.498
34031	1.633
34032	1.667
34033	1.5977
34034	1.449
34035	1.7079
34036	1.2668
34037	1.3488
34038	1.2499
34039	1.3985
34040	1.3922
34041	1.3741
34042	1.3391
34043	1.2908
34044	1.4474
34045	1.4098
34046	1.3268
34047	1.3547
34048	0.99123
34049	0.93889
34050	0.79905
34051	0.66921
34052	0.98041
34053	0.96951
34054	0.65852
34055	0.64987
34056	0.57872
34057	0.91928
34058	0.91725
34059	0.76388
34060	0.79764
34061	1.1928
34062	1.1498
34063	1.1703
34064	1.0022
34065	1.0653
34066	0.86053
34067	1.0022
34068	0.99381
34069	0.82978
34070	1.5641
34071	1.4842
34072	1.6472
34073	1.6765
34074	1.6266
34075	1.5543
34076	1.5016
34077	1.3618
34078	1.4928
34079	1.3963
34080	1.6765
34081	1.5604
34082	1.478
34083	0.49015
34084	0.69949
34085	0.60584
34086	0.73813
34087	0.739
34088	0.69354
34089	0.53177
34090	0.68469
34091	0.59518
34092	0.76661
34093	0.76178
34094	0.73372
34095	0.97886
34096	0.97449
34097	0.99929
34098	1.0287
34099	0.94445
34100	0.87529
34101	0.94008
34102	0.97914
34103	0.92516
34104	0.80361
34105	0.91091
34106	0.83955
34107	0.91652
34108	0.50442
34109	0.96827
34110	0.90946
34111	0.87816
34112	0.81684
34113	1.1241
34114	1.0628
34115	0.91493
34116	1.183
34117	1.1299
34118	1.2175
34119	1.1007
34120	0.70694
34121	0.85426
34122	1.1085
34123	1.0128
34124	1.0209
34125	1.0384
34126	1.0316
34127	1.0816
34128	0.8531
34129	0.75286
34130	0.87936
34131	0.8558
34132	0.74987
34133	0.91483
34134	0.76939
34135	0.7489
34136	0.87797
34137	0.94778
34138	0.71334
34139	0.75174
34140	0.46646
34141	0.67013
34142	0.52802
34143	0.49363
34144	0.43437
34145	0.53168
34146	0.54806
34147	0.57733
34148	0.53432
34149	0.51849
34150	0.53971
34151	1.5433
34152	1.5203
34153	1.5263
34154	1.504
34155	1.4224
34156	1.4396
34157	1.5237
34158	1.425
34159	1.3902
34160	1.3576
34161	1.1097
34162	1.2003
34163	1.1387
34164	0.93521
34165	0.78881
34166	1.3116
34167	1.2877
34168	1.1991
34169	1.238
34170	1.8769
34171	1.904
34172	1.767
34173	1.6271
34174	1.8017
34175	1.8189
34176	1.3521
34177	1.4686
34178	1.5779
34179	1.4935
34180	1.6546
34181	1.7071
34182	1.6351
34183	1.5658
34184	1.4903
34185	1.5099
34186	1.4384
34187	1.6534
34188	1.5824
34189	1.5483
34190	1.6803
34191	1.6683
34192	2.477
34193	1.6241
34194	2.4389
34195	1.6865
34196	1.5327
34197	1.9157
34198	2.2231
34199	1.9776
34200	0.14052
34201	0.22248
34202	0.17597
34203	0.22403
34204	0.26009
34205	0.31507
34206	0.18066
34207	0.20721
34208	0.12761
34209	0.15703
34210	9.8002e-002
34211	0.10663
34212	0.13167
34213	7.7452e-002
34214	0.31517
34215	0.27942
34216	0.14712
34217	0.20995
34218	0.14363
34219	0.22607
34220	0.20591
34221	0.13965
34222	0.10286
34223	8.7904e-002
34224	0.12243
34225	9.0712e-002
34226	1.5652
34227	1.7932
34228	1.7699
34229	1.7113
34230	1.7604
34231	1.6735
34232	1.5561
34233	1.502
34234	1.6484
34235	1.4937
34236	1.5782
34237	1.6443
34238	1.5499
34239	0.54886
34240	0.62522
34241	0.65045
34242	0.65359
34243	0.66436
34244	0.57843
34245	0.63347
34246	0.55964
34247	0.63157
34248	0.64022
34249	0.569
34250	0.65069
34251	1.2658
34252	1.3565
34253	1.3624
34254	1.4345
34255	1.4153
34256	1.3212
34257	1.4141
34258	1.3662
34259	1.3283
34260	1.398
34261	1.405
34262	1.3702
34263	1.273
34264	1.3892
34265	1.2836
34266	1.2818
34267	1.2099
34268	1.8575
34269	1.8065
34270	1.788
34271	1.6418
34272	2.0186
34273	1.7582
34274	1.5741
34275	0.48004
34276	0.56512
34277	0.54996
34278	0.49836
34279	0.56619
34280	0.55408
34281	1.1616
34282	1.1486
34283	1.1052
34284	1.0959
34285	1.0362
34286	1.0068
34287	0.97356
34288	1.0483
34289	1.0935
34290	1.0641
34291	1.0601
34292	1.0375
34293	0.66271
34294	0.72017
34295	0.65785
34296	0.81493
34297	0.85817
34298	1.158
34299	1.0869
34300	1.0142
34301	1.1317
34302	1.0806
34303	1.1508
34304	1.1299
34305	1.0393
34306	0.86934
34307	0.94735
34308	0.96229
34309	0.96575
34310	1.0837
34311	1.0202
34312	1.043
34313	0.99816
34314	2.722
34315	1.8633
34316	2.6953
34317	3.0081
34318	2.3434
34319	2.026
34320	1.6688
34321	1.8669
34322	1.7065
34323	2.3057
34324	2.1278
34325	2.1838
34326	1.9036
34327	1.6897
34328	1.7763
34329	1.5791
34330	3.0642
34331	3.2032
34332	2.0502
34333	2.1472
34334	3.0487
34335	0.49176
34336	0.49272
34337	0.52153
34338	0.45222
34339	0.44706
34340	0.52025
34341	0.54211
34342	0.4989
34343	0.51957
34344	0.64128
34345	0.65381
34346	0.59569
34347	0.59643
34348	0.52213
34349	0.64258
34350	0.56064
34351	0.62496
34352	0.55424
34353	0.66009
34354	0.51987
34355	0.58228
34356	0.5353
34357	0.39443
34358	0.52648
34359	0.56661
34360	0.49747
34361	0.54022
34362	0.52292
34363	0.97269
34364	0.96767
34365	0.93007
34366	1.0171
34367	1.0162
34368	0.84502
34369	0.961
34370	1.0105
34371	1.0102
34372	1.3382
34373	1.3454
34374	1.2606
34375	1.4309
34376	1.4322
34377	2.3329
34378	2.1457
34379	2.2283
34380	1.9257
34381	1.7392
34382	2.1191
34383	1.4976
34384	1.5166
34385	1.4383
34386	1.5678
34387	1.483
34388	1.4357
34389	2.5524
34390	2.3046
34391	1.688
34392	2.4719
34393	1.6984
34394	1.9425
34395	2.2895
34396	2.019
34397	1.5155
34398	1.7654
34399	1.8468
34400	1.6241
34401	1.6442
34402	1.8016
34403	1.6436
34404	1.8875
34405	1.7878
34406	1.8136
34407	1.0382
34408	1.0741
34409	1.1251
34410	1.0524
34411	0.4831
34412	0.50301
34413	0.41408
34414	0.39646
34415	0.60733
34416	0.52617
34417	0.6026
34418	0.46202
34419	0.59366
34420	0.53245
34421	0.61123
34422	0.56046
34423	2.8497
34424	1.8592
34425	2.6499
34426	1.7874
34427	2.867
34428	2.2916
34429	1.3112
34430	1.6154
34431	1.2706
34432	0.89524
34433	1.0095
34434	0.98857
34435	0.95301
34436	0.92101
34437	0.77223
34438	0.99105
34439	0.89965
34440	0.90676
34441	0.89161
34442	1.0488
34443	1.0188
34444	0.98937
34445	0.99354
34446	2.834
34447	1.996
34448	2.8152
34449	2.2486
34450	1.5248
34451	0.43607
34452	0.63305
34453	0.58814
34454	0.6238
34455	0.63994
34456	0.52076
34457	0.5882
34458	0.66903
34459	0.61188
34460	0.59133
34461	0.53436
34462	0.63012
34463	0.55333
34464	5.4256
34465	6.2312
34466	4.2396
34467	3.5999
34468	5.7264
34469	4.0979
34470	6.3339
34471	5.8101
34472	5.8426
34473	4.4841
34474	0.99461
34475	1.1372
34476	1.2392
34477	1.2036
34478	1.0882
34479	0.98179
34480	0.86754
34481	0.92695
34482	1.1622
34483	1.366
34484	0.13402
34485	9.9915e-002
34486	7.9039e-002
34487	0.11449
34488	0.1268
34489	1.8249
34490	1.5168
34491	2.2631
34492	2.3913
34493	2.5701
34494	1.9064
34495	1.7114
34496	2.4535
34497	2.5059
34498	2.8043
34499	2.7677
34500	2.3983
34501	2.4357
34502	2.5361
34503	2.3639
34504	2.124
34505	2.24
34506	2.2386
34507	2.4632
34508	2.4484
34509	1.7969
34510	1.6227
34511	2.6414
34512	2.1112
34513	2.3899
34514	1.7891
34515	2.6007
34516	1.9208
34517	0.76342
34518	0.79354
34519	0.8795
34520	0.80724
34521	0.91741
34522	0.88555
34523	0.89334
34524	0.82617
34525	2.2558
34526	2.1632
34527	2.6358
34528	2.1186
34529	2.8721
34530	3.8782
34531	3.7455
34532	3.6551
34533	2.5883
34534	3.9543
34535	4.1028
34536	3.0339
34537	1.7188
34538	1.4709
34539	1.592
34540	1.4716
34541	1.6836
34542	1.6615
34543	1.6288
34544	0.21193
34545	0.14608
34546	0.18889
34547	0.21413
34548	0.44055
34549	0.45087
34550	0.52052
34551	0.54133
34552	0.4052
34553	0.39065
34554	0.2982
34555	0.27317
34556	0.3297
34557	0.29932
34558	0.62775
34559	0.39658
34560	0.51359
34561	0.51145
34562	0.4347
34563	0.43303
34564	0.37629
34565	0.38109
34566	0.35325
34567	0.28577
34568	0.31822
34569	0.33076
34570	0.28511
34571	0.28392
34572	0.27374
34573	1.2139
34574	1.1252
34575	1.1985
34576	1.239
34577	1.1357
34578	1.0792
34579	1.038
34580	1.0159
34581	0.64453
34582	0.99177
34583	0.96402
34584	0.76701
34585	0.92635
34586	0.80041
34587	0.8863
34588	0.73866
34589	0.36228
34590	0.32216
34591	0.40032
34592	0.47446
34593	0.53619
34594	0.30008
34595	0.34933
34596	0.24907
34597	0.40599
34598	0.50921
34599	1.7735
34600	1.6311
34601	1.7144
34602	1.6593
34603	1.841
34604	1.5977
34605	1.2972
34606	1.5062
34607	1.1593
34608	1.44
34609	1.2808
34610	1.885
34611	1.4541
34612	1.1862
34613	0.9828
34614	1.4173
34615	1.1539
34616	1.0836
34617	1.2714
34618	1.1161
34619	1.5399
34620	1.5128
34621	1.4377
34622	0.69437
34623	0.62454
34624	0.71949
34625	0.837
34626	0.64722
34627	0.67593
34628	0.55033
34629	0.92488
34630	0.78244
34631	0.77841
34632	0.76294
34633	0.59752
34634	0.70412
34635	0.86257
34636	0.68458
34637	0.72266
34638	2.3241
34639	2.0791
34640	2.9238
34641	2.7488
34642	2.6342
34643	2.3233
34644	2.1324
34645	1.9466
34646	3.2786
34647	2.9309
34648	3.0169
34649	3.1986
34650	2.1674
34651	2.6286
34652	2.7446
34653	1.8056
34654	2.1854
34655	2.0118
34656	1.7951
34657	1.9416
34658	2.1442
34659	2.2724
34660	1.894
34661	1.7866
34662	1.4839
34663	1.1518
34664	1.4023
34665	1.5113
34666	1.1814
34667	0.84901
34668	1.3683
34669	1.4094
34670	1.413
34671	1.5126
34672	1.3677
34673	1.2213
34674	0.8412
34675	1.0775
34676	1.0935
34677	1.4224
34678	1.3777
34679	1.5237
34680	2.8786
34681	2.3358
34682	1.8852
34683	0.35031
34684	0.71231
34685	0.4545
34686	0.54705
34687	0.36963
34688	0.48896
34689	0.4926
34690	0.25683
34691	0.76058
34692	0.55163
34693	0.4253
34694	0.26265
34695	0.31116
34696	0.36654
34697	2.6183
34698	2.7868
34699	1.0878
34700	2.7674
34701	2.162
34702	2.7224
34703	2.7642
34704	2.7776
34705	2.8657
34706	2.4193
34707	2.6852
34708	2.193
34709	2.3535
34710	1.9264
34711	1.6008
34712	1.2106
34713	1.7381
34714	2.4876
34715	2.5494
34716	2.041
34717	1.3008
34718	1.7365
34719	0.38406
34720	0.41096
34721	0.43379
34722	0.50634
34723	0.37761
34724	0.85287
34725	1.0857
34726	1.207
34727	1.4525
34728	1.4916
34729	1.9435
34730	1.9121
34731	1.9973
34732	1.4695
34733	1.6411
34734	1.8955
34735	1.7792
34736	1.5845
34737	2.1553
34738	2.1921
34739	0.50948
34740	0.45209
34741	0.53019
34742	0.65503
34743	2.4467
34744	2.0685
34745	1.8659
34746	2.2519
34747	2.5781
34748	3.2292
34749	2.622
34750	2.7234
34751	2.8567
34752	3.3471
34753	3.363
34754	0.5675
34755	0.54254
34756	0.7967
34757	0.62711
34758	0.91257
34759	0.76921
34760	0.6323
34761	0.99059
34762	1.0294
34763	1.1893
34764	1.0886
34765	0.94093
34766	1.1359
34767	0.93303
34768	1.1051
34769	1.3665
34770	1.2037
34771	0.9898
34772	0.91582
34773	3.2571
34774	3.4906
34775	2.7118
34776	3.2202
34777	2.7146
34778	3.717
34779	3.7518
34780	3.1174
34781	3.6967
34782	3.5531
34783	2.3184
34784	3.2386
34785	3.4956
34786	3.3274
34787	3.1063
34788	3.0408
34789	1.5303
34790	1.0328
34791	1.5612
34792	0.76775
34793	0.69748
34794	2.0735
34795	1.1932
34796	1.6773
34797	0.66034
34798	1.1115
34799	2.4442
34800	2.878
34801	2.7647
34802	2.5736
34803	2.1634
34804	2.7595
34805	3.1872
34806	2.4577
34807	2.9416
34808	3.1092
34809	1.179
34810	2.8623
34811	3.1168
34812	1.3684
34813	1.6675
34814	1.9863
34815	3.1035
34816	3.045
34817	2.8481
34818	0.7959
34819	0.77663
34820	0.82077
34821	1.6372
34822	1.1956
34823	1.379
34824	1.7507
34825	1.2219
34826	1.035
34827	0.93318
34828	0.86882
34829	1.0252
34830	0.81784
34831	0.96094
34832	0.76187
34833	1.1721
34834	1.1699
34835	0.86236
34836	1.0523
34837	1.4827
34838	1.8403
34839	1.8443
34840	1.8448
34841	1.6477
34842	1.4156
34843	1.5933
34844	2.2509
34845	1.8433
34846	1.6443
34847	2.2911
34848	1.3339
34849	1.5209
34850	1.9215
34851	2.6213
34852	2.6085
34853	2.2164
34854	1.942
34855	2.7253
34856	2.2651
34857	2.8557
34858	2.3251
34859	0.1771
34860	0.16135
34861	0.11822
34862	0.17078
34863	0.10918
34864	9.7466e-002
34865	0.43404
34866	0.47298
34867	0.32075
34868	0.34709
34869	0.38646
34870	0.47664
34871	0.41607
34872	0.43299
34873	0.54892
34874	0.55917
34875	0.32292
34876	0.39736
34877	0.39346
34878	0.31311
34879	0.2684
34880	0.32425
34881	0.38184
34882	0.4379
34883	0.23126
34884	0.22694
34885	2.6417
34886	3.0404
34887	3.0063
34888	2.3711
34889	1.9297
34890	2.8514
34891	2.3046
34892	2.3097
34893	1.6438
34894	2.3154
34895	1.9227
34896	2.2188
34897	2.1734
34898	1.9424
34899	1.9355
34900	1.9701
34901	2.1409
34902	2.2851
34903	2.1463
34904	1.1448
34905	1.095
34906	3.9763
34907	4.3956
34908	3.9683
34909	2.8032
34910	3.2225
34911	3.2672
34912	3.8725
34913	3.3217
34914	3.24
34915	3.5988
34916	1.7977
34917	5.7326
34918	6.0262
34919	9.5823
34920	9.546
34921	4.3437
34922	4.7922
34923	4.0871
34924	6.635
34925	2.9515
34926	3.1864
34927	4.6989
34928	1.5714
34929	2.8889
34930	2.0418
34931	3.5976
34932	1.9525
34933	4.9849
34934	1.3619
34935	1.2985
34936	1.2753
34937	1.4243
34938	1.191
34939	1.022
34940	1.6251
34941	1.5335
34942	1.1871
34943	1.2326
34944	1.2251
34945	1.239
34946	1.0607
34947	1.0806
34948	1.1287
34949	1.0043
34950	1.0221
34951	0.8242
34952	1.1408
34953	0.95323
34954	0.81462
34955	1.1721
34956	1.0613
34957	0.78272
34958	0.61049
34959	0.70634
34960	0.67497
34961	0.67034
34962	1.1023
34963	0.80466
34964	1.0293
34965	0.8256
34966	0.95833
34967	0.70653
34968	0.97947
34969	0.79552
34970	0.97586
34971	0.77519
34972	2.3691
34973	2.7483
34974	2.1652
34975	1.7229
34976	2.3948
34977	1.8232
34978	2.9053
34979	2.2283
34980	2.7988
34981	2.1696
34982	2.9121
34983	1.9083
34984	2.2621
34985	2.3131
34986	2.0256
34987	2.8484
34988	2.3003
34989	0.9244
34990	0.8352
34991	0.8736
34992	0.90463
34993	0.82937
34994	0.95699
34995	1.1507
34996	2.1632
34997	1.9674
34998	1.6833
34999	2.4956
35000	1.9199
35001	2.5184
35002	1.9874
35003	2.1563
35004	1.5034
35005	1.4202
35006	1.1646
35007	1.5016
35008	2.1698
35009	1.0361
35010	1.3262
35011	0.76837
35012	0.81959
35013	0.80334
35014	0.70874
35015	0.67984
35016	0.72169
35017	0.81673
35018	0.84848
35019	0.6762
35020	0.60697
35021	0.84214
35022	0.85155
35023	0.70869
35024	0.72158
35025	0.58086
35026	0.36379
35027	0.38036
35028	0.26257
35029	0.33216
35030	0.29653
35031	0.43385
35032	0.33171
35033	0.38185
35034	0.43234
35035	0.33329
35036	0.2797
35037	0.41371
35038	0.31018
35039	0.40952
35040	0.4876
35041	0.53667
35042	0.31727
35043	0.25649
35044	0.19765
35045	0.39077
35046	0.46178
35047	0.25373
35048	0.19593
35049	0.19191
35050	0.16511
35051	0.29996
35052	0.24619
35053	0.16748
35054	0.24875
35055	2.6774
35056	1.6394
35057	2.9289
35058	2.7646
35059	2.3254
35060	2.4241
35061	2.5392
35062	1.6383
35063	1.7257
35064	2.044
35065	1.9365
35066	1.3691
35067	1.5283
35068	1.1116
35069	1.0885
35070	1.2375
35071	1.202
35072	1.0266
35073	1.089
35074	1.2888
35075	1.3608
35076	1.1815
35077	1.1431
35078	1.3157
35079	1.3254
35080	1.5586
35081	1.5213
35082	1.5579
35083	1.2627
35084	1.3989
35085	1.6206
35086	1.4175
35087	1.8407
35088	1.6933
35089	1.3961
35090	1.6588
35091	1.3664
35092	1.5234
35093	1.2546
35094	1.2817
35095	0.52312
35096	0.71769
35097	0.84292
35098	1.1201
35099	0.81742
35100	1.0056
35101	1.0618
35102	1.5134
35103	1.508
35104	1.3858
35105	1.0912
35106	0.96338
35107	1.4016
35108	1.2633
35109	1.3015
35110	0.79755
35111	0.97302
35112	0.2234
35113	0.67427
35114	0.2273
35115	0.24541
35116	0.26312
35117	0.41288
35118	0.42254
35119	0.18435
35120	0.3114
35121	5.5348
35122	4.0354
35123	3.5064
35124	3.3893
35125	3.1185
35126	5.7208
35127	4.5476
35128	4.5883
35129	6.0826
35130	7.1315
35131	7.0901
35132	7.0344
35133	7.1491
35134	6.4818
35135	5.6014
35136	5.9924
35137	6.9772
35138	4.9433
35139	5.9334
35140	6.5127
35141	5.8679
35142	4.288
35143	3.4435
35144	3.5251
35145	3.7641
35146	3.7595
35147	3.8668
35148	1.3558
35149	1.2393
35150	1.0249
35151	0.72916
35152	0.82605
35153	1.2293
35154	1.3253
35155	0.68045
35156	0.58215
35157	0.77014
35158	0.69125
35159	0.12065
35160	0.10337
35161	9.7281e-002
35162	0.35565
35163	0.45193
35164	0.20601
35165	0.35998
35166	0.28354
35167	0.2918
35168	1.694
35169	1.7444
35170	1.6513
35171	1.8738
35172	1.7797
35173	1.6957
35174	2.028
35175	1.8864
35176	1.9787
35177	1.6651
35178	1.7176
35179	2.1069
35180	1.8762
35181	2.194
35182	1.8159
35183	0.83656
35184	0.79715
35185	0.86917
35186	0.89314
35187	0.80176
35188	0.75449
35189	0.82006
35190	0.79996
35191	0.83519
35192	0.78251
35193	0.797
35194	0.8488
35195	0.83851
35196	0.74074
35197	0.70503
35198	0.74193
35199	0.76058
35200	0.75842
35201	0.84581
35202	1.029
35203	0.97328
35204	0.81628
35205	1.0804
35206	1.042
35207	0.93449
35208	0.84632
35209	0.9449
35210	0.81829
35211	0.82833
35212	1.008
35213	0.91102
35214	1.2889
35215	1.4995
35216	1.2483
35217	1.4185
35218	1.5099
35219	1.278
35220	1.3459
35221	1.3452
35222	1.2699
35223	1.4563
35224	1.3892
35225	3.1137
35226	3.0561
35227	2.3806
35228	3.0645
35229	2.9064
35230	2.004
35231	1.8845
35232	2.2725
35233	1.5694
35234	1.7799
35235	2.0717
35236	1.5182
35237	1.1035
35238	0.91353
35239	1.5223
35240	0.91511
35241	1.3942
35242	1.4271
35243	1.6548
35244	2.8997
35245	2.868
35246	2.8188
35247	1.5706
35248	1.6479
35249	1.5483
35250	1.432
35251	1.4775
35252	1.5812
35253	1.5316
35254	1.5172
35255	1.3807
35256	1.1889
35257	1.1752
35258	1.2052
35259	1.1244
35260	0.81149
35261	0.74365
35262	0.70015
35263	0.79471
35264	0.38554
35265	0.66315
35266	0.64794
35267	1.874
35268	2.2354
35269	2.0863
35270	2.2737
35271	2.1483
35272	2.5653
35273	2.3599
35274	2.7367
35275	2.8421
35276	2.6975
35277	2.6723
35278	3.0881
35279	3.3054
35280	2.1267
35281	3.304
35282	2.7388
35283	3.1981
35284	2.323
35285	2.2299
35286	1.8603
35287	1.319
35288	1.3257
35289	1.1876
35290	1.5071
35291	1.2239
35292	1.4683
35293	1.1126
35294	1.0123
35295	1.2711
35296	1.0619
35297	1.0271
35298	0.98723
35299	0.98091
35300	1.1409
35301	1.1347
35302	0.94381
35303	0.92991
35304	1.0853
35305	2.1581
35306	2.1509
35307	2.0307
35308	1.9702
35309	1.8586
35310	6.7002
35311	8.7413
35312	10.391
35313	4.3162
35314	5.0724
35315	5.8661
35316	4.5112
35317	4.8399
35318	4.3816
35319	4.2557
35320	4.6936
35321	4.1346
35322	4.0417
35323	4.0246
35324	4.1397
35325	2.3586
35326	1.8282
35327	1.7364
35328	1.8657
35329	2.343
35330	2.5024
35331	3.0385
35332	3.2897
35333	1.83
35334	1.8163
35335	2.6736
35336	3.183
35337	3.2439
35338	3.1214
35339	2.7524
35340	2.9888
35341	1.877
35342	1.64
35343	1.6922
35344	1.5806
35345	1.7215
35346	1.5688
35347	1.8597
35348	1.7939
35349	1.0874
35350	1.5298
35351	1.7722
35352	0.99436
35353	0.89314
35354	0.98638
35355	1.2029
35356	0.81835
35357	1.7741
35358	1.3738
35359	1.7315
35360	1.8568
35361	1.4715
35362	1.3932
35363	1.6405
35364	1.5523
35365	1.7733
35366	1.6305
35367	1.8336
35368	0.77452
35369	0.68997
35370	0.69308
35371	0.88954
35372	0.55788
35373	0.47731
35374	0.40868
35375	0.48371
35376	0.40166
35377	0.35555
35378	1.476
35379	1.0284
35380	1.6816
35381	1.1036
35382	1.3137
35383	2.2919
35384	1.8548
35385	0.29184
35386	0.33484
35387	0.34204
35388	0.28657
35389	0.31152
35390	0.31121
35391	0.35605
35392	0.19092
35393	0.332
35394	0.22319
35395	0.3007
35396	0.23476
35397	0.54118
35398	0.16743
35399	0.15449
35400	0.24546
35401	0.27651
35402	0.27017
35403	0.39964
35404	0.40945
35405	6.0337
35406	5.8467
35407	5.0078
35408	3.7124
35409	2.9663
35410	5.5715
35411	4.4301
35412	3.4669
35413	2.8857
35414	2.0023
35415	2.003
35416	1.7161
35417	1.939
35418	2.0963
35419	1.9688
35420	1.8053
35421	2.1708
35422	2.0799
35423	2.3046
35424	2.2085
35425	1.3192
35426	1.1905
35427	1.3809
35428	1.4137
35429	1.2988
35430	1.3894
35431	1.3713
35432	1.2967
35433	1.0711
35434	1.1426
35435	1.0932
35436	2.0615
35437	2.1998
35438	1.7196
35439	2.4125
35440	1.4266
35441	1.5926
35442	1.3155
35443	1.5598
35444	1.3219
35445	1.7724
35446	1.6901
35447	0.84927
35448	1.1709
35449	1.2993
35450	1.595
35451	1.4747
35452	1.172
35453	1.2278
35454	0.4754
35455	0.46285
35456	0.56054
35457	0.64951
35458	1.5558
35459	1.9156
35460	1.5539
35461	1.9291
35462	1.7967
35463	1.7543
35464	1.5625
35465	1.9651
35466	1.7696
35467	1.514
35468	1.8077
35469	1.4604
35470	1.5968
35471	1.7429
35472	2.9858
35473	2.8414
35474	1.8492
35475	2.1443
35476	2.8726
35477	2.3024
35478	2.9296
35479	2.3854
35480	2.7694
35481	2.8724
35482	2.7775
35483	2.7995
35484	2.8365
35485	2.2666
35486	1.5298
35487	1.999
35488	2.025
35489	1.5583
35490	2.0793
35491	2.2567
35492	1.7278
35493	1.9879
35494	2.7275
35495	1.7383
35496	1.7057
35497	1.5493
35498	2.0447
35499	2.4211
35500	2.1749
35501	1.806
35502	2.2734
35503	2.5039
35504	1.8517
35505	2.5766
35506	1.6548
35507	1.8583
35508	1.39
35509	1.7282
35510	1.5755
35511	1.412
35512	1.528
35513	1.4013
35514	2.4415
35515	2.2951
35516	2.0592
35517	1.7519
35518	2.2822
35519	1.7826
35520	1.771
35521	4.5508
35522	1.9789
35523	2.9083
35524	3.7827
35525	2.2902
35526	2.237
35527	1.5296
35528	1.4685
35529	2.579
35530	2.1331
35531	1.3206
35532	1.8528
35533	1.8804
35534	1.8074
35535	2.5117
35536	2.1885
35537	1.7498
35538	1.5706
35539	1.4969
35540	1.7155
35541	1.782
35542	1.8061
35543	1.4373
35544	1.2076
35545	1.273
35546	1.6355
35547	1.4427
35548	1.8199
35549	1.8554
35550	1.5887
35551	1.5467
35552	1.6279
35553	1.4021
35554	2.1366
35555	2.3538
35556	3.6441
35557	4.0213
35558	2.7403
35559	2.9489
35560	3.9107
35561	3.8413
35562	3.5701
35563	2.5414
35564	1.6773
35565	2.5716
35566	2.2652
35567	2.497
35568	2.3414
35569	2.1334
35570	2.0225
35571	1.7794
35572	1.9002
35573	2.1813
35574	2.2916
35575	0.62195
35576	0.58966
35577	0.43682
35578	0.34323
35579	0.11386
35580	0.37565
35581	0.1319
35582	0.33085
35583	0.17576
35584	0.12567
35585	0.23407
35586	0.13963
35587	0.28597
35588	0.23962
35589	0.2406
35590	0.11169
35591	0.27582
35592	0.14664
35593	0.61325
35594	0.50021
35595	0.53097
35596	0.59988
35597	0.67075
35598	0.63881
35599	0.62737
35600	0.56942
35601	0.62404
35602	0.64913
35603	0.57984
35604	0.55663
35605	1.8002
35606	1.8774
35607	1.6272
35608	2.0398
35609	2.2049
35610	1.7337
35611	1.7057
35612	2.1738
35613	2.483
35614	2.5345
35615	2.0964
35616	2.0348
35617	1.1154
35618	1.0609
35619	1.154
35620	1.3137
35621	1.3653
35622	1.451
35623	1.2596
35624	1.2525
35625	1.3873
35626	1.3925
35627	1.5051
35628	1.3926
35629	1.4517
35630	1.5467
35631	13.007
35632	10.161
35633	12.072
35634	12.559
35635	10.613
35636	12.008
35637	12.397
35638	9.5708
35639	10.092
35640	8.5941
35641	11.077
35642	8.3841
35643	10.375
35644	11.09
35645	8.6144
35646	4.0531
35647	4.4393
35648	3.9006
35649	3.6938
35650	4.6676
35651	4.3614
35652	4.0125
35653	5.669
35654	5.7975
35655	5.0891
35656	6.649
35657	6.7438
35658	0.93375
35659	0.80509
35660	0.7256
35661	0.75297
35662	0.80268
35663	0.87993
35664	0.92684
35665	0.96343
35666	0.6357
35667	0.66938
35668	1.0348
35669	1.181
35670	1.1592
35671	0.99766
35672	1.2175
35673	1.1881
35674	1.0248
35675	1.0791
35676	1.1673
35677	1.0676
35678	1.0063
35679	1.1157
35680	0.89165
35681	1.1748
35682	1.0308
35683	0.8998
35684	1.035
35685	0.92619
35686	1.1333
35687	1.1369
35688	0.46638
35689	0.8323
35690	0.9451
35691	0.85418
35692	0.63072
35693	0.65561
35694	0.42056
35695	0.70436
35696	0.70469
35697	0.55905
35698	0.67893
35699	0.89538
35700	0.84098
35701	0.52955
35702	0.39007
35703	0.79113
35704	0.64088
35705	0.91164
35706	0.86999
35707	0.95702
35708	0.98907
35709	1.243
35710	1.1764
35711	1.1747
35712	3.4039
35713	3.6921
35714	3.0176
35715	3.8947
35716	3.1244
35717	3.6178
35718	0.80329
35719	0.76238
35720	0.72402
35721	0.71417
35722	0.63427
35723	0.65366
35724	0.76097
35725	0.72322
35726	0.63993
35727	0.65329
35728	0.77792
35729	0.56543
35730	0.58065
35731	0.75857
35732	0.69134
35733	0.74765
35734	0.72066
35735	0.30625
35736	0.35684
35737	0.40336
35738	0.3773
35739	0.43666
35740	0.55258
35741	0.51652
35742	0.50479
35743	0.41075
35744	1.5614
35745	2.0082
35746	1.8868
35747	1.7545
35748	1.7869
35749	1.6144
35750	1.7316
35751	1.7819
35752	1.5231
35753	1.8365
35754	1.267
35755	1.2336
35756	1.1606
35757	1.1947
35758	1.1215
35759	1.1123
35760	1.747
35761	2.0231
35762	1.8102
35763	2.0356
35764	1.9668
35765	1.5718
35766	1.6685
35767	2.8472
35768	2.8007
35769	2.0855
35770	2.7351
35771	2.1258
35772	2.8666
35773	2.0967
35774	2.7885
35775	2.7469
35776	1.6883
35777	2.8765
35778	2.7886
35779	2.347
35780	2.4267
35781	2.0928
35782	2.4251
35783	2.6937
35784	1.5629
35785	2.1501
35786	1.9444
35787	2.1803
35788	1.5091
35789	2.1406
35790	1.7297
35791	1.6415
35792	2.3062
35793	1.2064
35794	1.5384
35795	1.9876
35796	2.2493
35797	1.8159
35798	2.0287
35799	1.6049
35800	1.6181
35801	2.4422
35802	1.9705
35803	5.1666
35804	2.0895
35805	4.2349
35806	5.1865
35807	4.2478
35808	1.6964
35809	1.8558
35810	4.1086
35811	5.1663
35812	4.9769
35813	4.7745
35814	0.76719
35815	0.69271
35816	0.43973
35817	0.63224
35818	0.90574
35819	0.51569
35820	0.61503
35821	0.6031
35822	0.52884
35823	0.66088
35824	0.71925
35825	0.48099
35826	0.46331
35827	0.595
35828	0.71698
35829	0.61473
35830	0.62272
35831	0.7023
35832	0.53815
35833	0.51522
35834	0.40909
35835	0.44562
35836	0.4203
35837	1.2093
35838	1.2691
35839	1.0304
35840	0.9366
35841	1.399
35842	1.4024
35843	1.1315
35844	0.96162
35845	1.132
35846	1.0016
35847	1.691
35848	1.7273
35849	1.6137
35850	1.8119
35851	1.986
35852	2.5163
35853	2.0267
35854	1.7956
35855	1.731
35856	2.2676
35857	2.2721
35858	1.8517
35859	1.3508
35860	1.8119
35861	1.6432
35862	1.6349
35863	1.484
35864	4.9209
35865	5.333
35866	4.6818
35867	3.8377
35868	0.76414
35869	0.49501
35870	0.85859
35871	0.61859
35872	0.91328
35873	0.79785
35874	0.76518
35875	0.62269
35876	0.38396
35877	0.53192
35878	0.54395
35879	0.53944
35880	0.49997
35881	0.47781
35882	0.43597
35883	0.49077
35884	0.54318
35885	2.8336
35886	4.7574
35887	3.9628
35888	4.9459
35889	3.2248
35890	3.6003
35891	3.384
35892	4.4633
35893	4.5274
35894	3.8262
35895	4.8995
35896	4.8045
35897	6.1973
35898	6.8874
35899	4.9202
35900	5.0589
35901	6.9886
35902	3.5948
35903	3.7296
35904	3.423
35905	7.7263
35906	6.1014
35907	5.9448
35908	1.3537
35909	1.4102
35910	1.9186
35911	2.139
35912	1.8343
35913	1.9999
35914	1.9511
35915	2.1345
35916	1.7423
35917	1.6431
35918	1.3991
35919	1.5689
35920	1.843
35921	1.8633
35922	1.6502
35923	2.9477
35924	3.2026
35925	2.9355
35926	2.6827
35927	3.3484
35928	2.5965
35929	3.3086
35930	3.2691
35931	2.7803
35932	2.3974
35933	2.9257
35934	2.7332
35935	2.8702
35936	3.3799
35937	3.6792
35938	3.4577
35939	1.0632
35940	1.0651
35941	1.1027
35942	1.1158
35943	0.95478
35944	0.98059
35945	0.83112
35946	0.62123
35947	0.80746
35948	0.52476
35949	0.44479
35950	1.0233
35951	0.83282
35952	1.1194
35953	1.1713
35954	0.45388
35955	0.59283
35956	0.41208
35957	0.72104
35958	0.51861
35959	0.2275
35960	0.42081
35961	0.24513
35962	0.5662
35963	0.17727
35964	0.39562
35965	0.26331
35966	0.28908
35967	0.39599
35968	0.30556
35969	0.3588
35970	0.32352
35971	0.25672
35972	0.87689
35973	0.78713
35974	0.97033
35975	0.75629
35976	1.101
35977	1.031
35978	1.1195
35979	1.1385
35980	1.1645
35981	1.1055
35982	1.1728
35983	1.2112
35984	1.2241
35985	0.98011
35986	1.1289
35987	1.0535
35988	0.98439
35989	1.0077
35990	0.93006
35991	1.0744
35992	1.0093
35993	1.0114
35994	0.87462
35995	0.76009
35996	0.90537
35997	0.98849
35998	0.76737
35999	1.0135
36000	0.97333
36001	0.95842
36002	0.62565
36003	0.46745
36004	0.73348
36005	0.69683
36006	0.53535
36007	0.62079
36008	0.68828
36009	0.63253
36010	0.41523
36011	0.48368
36012	0.619
36013	0.57823
36014	1.7879
36015	2.9709
36016	2.2085
36017	2.9763
36018	2.3156
36019	1.0996
36020	1.1506
36021	1.4589
36022	1.4579
36023	1.5478
36024	1.3965
36025	1.5521
36026	1.3993
36027	1.003
36028	1.2476
36029	1.3115
36030	1.2373
36031	1.1259
36032	1.3327
36033	1.3705
36034	1.1919
36035	0.87783
36036	0.73185
36037	0.83596
36038	0.64446
36039	0.70097
36040	0.65281
36041	0.61639
36042	0.77821
36043	0.81025
36044	1.0598
36045	1.1426
36046	0.71191
36047	0.59443
36048	0.54317
36049	0.49334
36050	0.47834
36051	0.46985
36052	3.1714
36053	2.9919
36054	2.4493
36055	3.4899
36056	0.46216
36057	0.58306
36058	0.40736
36059	0.53451
36060	0.61466
36061	0.46445
36062	0.39656
36063	0.39571
36064	0.46865
36065	0.62864
36066	0.68376
36067	0.52112
36068	0.50811
36069	0.694
36070	0.65225
36071	0.60776
36072	0.46387
36073	0.39488
36074	0.57413
36075	0.54813
36076	0.53498
36077	0.51056
36078	0.56492
36079	0.78123
36080	0.661
36081	0.58155
36082	0.84541
36083	0.64194
36084	0.71389
36085	0.92398
36086	0.92151
36087	0.71904
36088	0.66381
36089	0.82691
36090	1.5
36091	1.4835
36092	1.3046
36093	1.1307
36094	1.3997
36095	1.2438
36096	1.4474
36097	1.0557
36098	1.6084
36099	1.5121
36100	0.77949
36101	0.94043
36102	0.59107
36103	0.798
36104	0.59103
36105	0.74167
36106	0.58237
36107	0.6971
36108	3.5252
36109	3.2864
36110	3.5578
36111	3.3008
36112	2.8009
36113	2.5051
36114	3.1049
36115	4.1638
36116	2.5595
36117	2.3463
36118	3.1814
36119	3.3499
36120	3.2554
36121	3.7535
36122	4.4819
36123	4.1145
36124	4.6532
36125	3.6145
36126	3.9457
36127	4.3022
36128	2.489
36129	2.3949
36130	2.0128
36131	1.8742
36132	1.7359
36133	1.8846
36134	1.9861
36135	2.1915
36136	0.10341
36137	0.11947
36138	0.3352
36139	0.1587
36140	0.21318
36141	0.12249
36142	0.20321
36143	6.7763
36144	7.0913
36145	4.9395
36146	6.6625
36147	6.2106
36148	4.9404
36149	5.4788
36150	5.3122
36151	4.6882
36152	5.8639
36153	5.3858
36154	0.8193
36155	1.6133
36156	2.209
36157	2.1504
36158	1.6265
36159	0.50244
36160	0.77766
36161	0.60533
36162	0.44307
36163	0.86718
36164	0.60566
36165	0.29358
36166	0.50622
36167	0.76134
36168	0.55876
36169	1.6955
36170	1.6974
36171	1.6166
36172	1.7793
36173	1.8131
36174	0.80496
36175	0.86085
36176	0.78592
36177	0.7181
36178	0.80318
36179	0.68001
36180	0.64915
36181	0.93805
36182	1.1454
36183	0.56104
36184	0.67904
36185	0.60855
36186	0.59155
36187	0.58847
36188	0.52338
36189	0.65383
36190	1.4398
36191	1.3552
36192	1.3036
36193	1.4337
36194	2.3222
36195	2.0393
36196	2.3224
36197	2.2333
36198	2.6686
36199	2.3508
36200	2.7489
36201	2.6418
36202	1.8081
36203	2.6442
36204	2.3898
36205	2.8205
36206	2.2049
36207	2.2449
36208	1.6927
36209	2.1866
36210	1.7405
36211	1.7007
36212	2.2775
36213	1.9404
36214	1.8747
36215	2.0787
36216	0.94653
36217	0.99143
36218	0.84782
36219	0.98041
36220	0.94789
36221	1.0261
36222	0.96271
36223	0.98989
36224	1.0189
36225	0.97356
36226	1.0397
36227	0.95051
36228	0.92222
36229	0.85472
36230	0.9319
36231	0.72264
36232	1.1644
36233	1.4749
36234	1.1156
36235	1.3534
36236	1.2467
36237	1.6348
36238	1.7348
36239	1.6344
36240	1.5731
36241	2.131
36242	2.2472
36243	2.4984
36244	2.0523
36245	1.785
36246	1.9007
36247	2.3552
36248	2.8894
36249	2.7361
36250	2.6296
36251	2.7601
36252	2.5113
36253	1.5211
36254	1.472
36255	3.3043
36256	2.9642
36257	0.88301
36258	0.86166
36259	0.87437
36260	0.78949
36261	0.84852
36262	0.80347
36263	0.51533
36264	0.43805
36265	0.4213
36266	0.31585
36267	0.38747
36268	0.49484
36269	0.54599
36270	0.59449
36271	0.3129
36272	0.37346
36273	0.41613
36274	0.47042
36275	0.39165
36276	0.44703
36277	0.34713
36278	0.20839
36279	0.27598
36280	0.25315
36281	0.34489
36282	0.29013
36283	0.34909
36284	0.3767
36285	0.37931
36286	0.42134
36287	0.41068
36288	0.46196
36289	0.49956
36290	0.51856
36291	0.52298
36292	0.54203
36293	0.56134
36294	1.6155
36295	1.8733
36296	1.8157
36297	1.8636
36298	1.6338
36299	1.7133
36300	5.1516
36301	5.6151
36302	5.6247
36303	5.6291
36304	6.8006
36305	7.325
36306	7.1299
36307	9.7596
36308	3.0199
36309	3.3929
36310	3.4269
36311	3.0543
36312	3.2121
36313	3.3889
36314	3.3461
36315	3.5785
36316	0.315
36317	0.18315
36318	0.2097
36319	1.0733
36320	1.1346
36321	0.99835
36322	0.92821
36323	1.1981
36324	1.3372
36325	1.2767
36326	1.0148
36327	1.2308
36328	1.1982
36329	1.2077
36330	1.0199
36331	1.2585
36332	1.0334
36333	1.3992
36334	1.272
36335	1.1725
36336	1.1409
36337	0.96508
36338	1.0454
36339	0.94167
36340	0.92645
36341	0.77891
36342	0.90192
36343	2.2663
36344	1.2103
36345	1.6484
36346	2.0761
36347	2.0011
36348	2.0044
36349	2.1773
36350	1.1365
36351	2.0188
36352	1.953
36353	1.4771
36354	1.7088
36355	1.7957
36356	2.2157
36357	1.7932
36358	1.581
36359	2.1131
36360	2.0976
36361	1.8113
36362	1.9347
36363	1.4918
36364	1.3801
36365	1.5686
36366	3.3425
36367	3.0886
36368	2.4154
36369	2.418
36370	2.0792
36371	3.3349
36372	2.4555
36373	1.9797
36374	2.4523
36375	3.309
36376	3.5572
36377	2.5675
36378	1.9065
36379	2.1459
36380	2.8037
36381	0.97096
36382	0.99536
36383	1.1377
36384	1.0564
36385	0.88273
36386	0.97198
36387	0.69903
36388	0.76823
36389	0.65469
36390	0.68063
36391	0.59249
36392	0.56727
36393	3.389
36394	3.2653
36395	3.5111
36396	3.8792
36397	3.4424
36398	3.4489
36399	3.5972
36400	3.9252
36401	3.1791
36402	3.6542
36403	4.7791
36404	4.119
36405	3.5342
36406	3.2477
36407	3.5872
36408	4.0744
36409	3.8147
36410	3.32
36411	3.2851
36412	3.3054
36413	4.6358
36414	4.4717
36415	0.93691
36416	0.88076
36417	0.97377
36418	1.045
36419	0.90464
36420	1.0382
36421	0.9787
36422	0.84041
36423	0.79224
36424	0.93158
36425	0.93183
36426	0.79189
36427	0.69126
36428	0.71392
36429	0.77211
36430	0.81444
36431	0.85663
36432	1.0296
36433	0.95669
36434	0.96946
36435	1.0185
36436	0.90754
36437	0.82985
36438	1.1151
36439	0.68258
36440	0.80647
36441	0.93682
36442	1.1434
36443	0.86588
36444	0.97157
36445	1.894
36446	2.0083
36447	1.8651
36448	1.8118
36449	2.0704
36450	1.8773
36451	2.1166
36452	0.3152
36453	0.37738
36454	0.26265
36455	0.18654
36456	0.25802
36457	0.37004
36458	0.36899
36459	0.31391
36460	0.14282
36461	0.19178
36462	0.1481
36463	0.12313
36464	8.5476e-002
36465	9.9552e-002
36466	0.22915
36467	0.31067
36468	0.25315
36469	0.27913
36470	0.21763
36471	0.19072
36472	0.18331
36473	0.25887
36474	0.32466
36475	1.504
36476	1.4223
36477	1.2759
36478	1.6258
36479	1.6171
36480	1.2048
36481	1.4288
36482	1.1114
36483	1.4276
36484	1.3054
36485	1.2111
36486	2.5332
36487	3.0172
36488	2.0148
36489	1.8875
36490	3.2717
36491	3.4981
36492	1.9045
36493	2.8392
36494	3.3076
36495	2.8069
36496	1.4121
36497	2.0974
36498	1.3863
36499	2.0641
36500	1.8095
36501	2.3988
36502	1.7135
36503	1.6331
36504	1.3479
36505	3.0377
36506	2.9908
36507	1.513
36508	1.9919
36509	1.3848
36510	1.2184
36511	1.7062
36512	1.6335
36513	1.9206
36514	1.6503
36515	1.4313
36516	1.2607
36517	1.2999
36518	1.5155
36519	1.0534
36520	1.1357
36521	0.96919
36522	0.93389
36523	1.2004
36524	1.1119
36525	1.2294
36526	1.3119
36527	1.4297
36528	1.2869
36529	2.6383
36530	2.1796
36531	2.0025
36532	2.6479
36533	3.1435
36534	1.786
36535	2.3077
36536	2.6832
36537	1.9837
36538	1.8248
36539	2.3268
36540	2.0588
36541	2.6217
36542	2.3597
36543	1.2981
36544	1.4979
36545	3.911
36546	3.8522
36547	4.6423
36548	3.8573
36549	3.496
36550	4.0074
36551	3.4512
36552	4.4728
36553	3.6459
36554	5.1034
36555	4.0863
36556	5.1386
36557	3.5849
36558	4.0698
36559	1.1713
36560	1.0607
36561	1.2055
36562	1.1859
36563	1.0723
36564	1.2341
36565	1.2321
36566	0.92606
36567	1.1472
36568	1.0956
36569	1.1694
36570	1.3023
36571	1.3668
36572	1.1638
36573	0.82351
36574	1.167
36575	0.7418
36576	0.63921
36577	0.84544
36578	0.81762
36579	0.66464
36580	0.74416
36581	0.80605
36582	0.75157
36583	0.16238
36584	0.22824
36585	0.1786
36586	0.24637
36587	9.6366e-002
36588	9.6256e-002
36589	9.7504e-002
36590	0.17034
36591	0.14232
36592	6.6329e-002
36593	9.7661e-002
36594	0.12749
36595	0.15726
36596	0.19313
36597	7.8999e-002
36598	6.0581e-002
36599	6.1945e-002
36600	6.4068e-002
36601	0.25272
36602	0.20653
36603	5.2985
36604	5.4188
36605	3.8139
36606	4.9701
36607	5.4981
36608	4.458
36609	5.9016
36610	4.8075
36611	3.0747
36612	3.7935
36613	1.6732
36614	1.3969
36615	2.8194
36616	4.152
36617	3.9368
36618	3.9208
36619	2.9431
36620	3.7156
36621	2.8544
36622	0.38427
36623	0.29314
36624	0.34498
36625	0.40313
36626	0.28173
36627	0.2866
36628	0.3411
36629	1.4236
36630	1.3458
36631	1.3165
36632	0.90812
36633	0.78869
36634	1.3126
36635	0.92672
36636	0.7273
36637	0.64507
36638	0.56896
36639	0.60535
36640	0.532
36641	0.51189
36642	2.0107
36643	2.0033
36644	1.893
36645	1.9167
36646	2.0165
36647	1.8029
36648	1.8808
36649	1.6585
36650	1.5384
36651	1.9513
36652	1.564
36653	1.6776
36654	1.9137
36655	2.3701
36656	2.2217
36657	2.1757
36658	2.4179
36659	2.1891
36660	2.2033
36661	1.8289
36662	1.6085
36663	1.9552
36664	1.8186
36665	0.91669
36666	0.89728
36667	0.85514
36668	0.80269
36669	0.80845
36670	0.74409
36671	0.73823
36672	0.84837
36673	1.0181
36674	0.84255
36675	0.75577
36676	1.0081
36677	1.0897
36678	0.86803
36679	1.0794
36680	1.1124
36681	1.1376
36682	1.1448
36683	1.3085
36684	1.2546
36685	1.3336
36686	1.2874
36687	1.1363
36688	1.0899
36689	1.0909
36690	1.2639
36691	0.87209
36692	0.71897
36693	0.94859
36694	0.85797
36695	1.0051
36696	0.95527
36697	1.0548
36698	0.86142
36699	0.82855
36700	0.83738
36701	0.775
36702	0.76937
36703	3.5469
36704	3.2639
36705	3.1135
36706	3.1587
36707	3.0107
36708	2.7899
36709	2.7411
36710	3.1901
36711	1.7697
36712	2.9897
36713	1.8452
36714	1.3896
36715	2.571
36716	2.8249
36717	2.687
36718	2.366
36719	2.291
36720	1.828
36721	2.8799
36722	2.0896
36723	2.0899
36724	1.7137
36725	2.3103
36726	1.8118
36727	2.9055
36728	2.2567
36729	1.2205
36730	1.7453
36731	0.78073
36732	3.0272
36733	0.4788
36734	0.43727
36735	0.51208
36736	0.55519
36737	1.82
36738	2.6001
36739	0.97298
36740	1.694
36741	1.7182
36742	1.4319
36743	1.7723
36744	1.6596
36745	1.5168
36746	1.8588
36747	1.9343
36748	1.7554
36749	1.5026
36750	1.7193
36751	1.8009
36752	2.129
36753	2.2143
36754	1.9721
36755	2.2443
36756	1.7292
36757	1.5298
36758	1.5011
36759	1.3104
36760	1.4167
36761	1.2017
36762	1.7373
36763	3.9738
36764	2.3498
36765	1.8392
36766	1.5594
36767	1.0497
36768	2.5493
36769	1.5652
36770	1.7062
36771	0.32595
36772	0.28362
36773	0.28353
36774	0.23735
36775	0.23896
36776	0.1787
36777	0.2093
36778	0.81976
36779	1.083
36780	0.61377
36781	0.64117
36782	0.94195
36783	1.0435
36784	1.1308
36785	1.0686
36786	1.1469
36787	1.0432
36788	0.91818
36789	1.1375
36790	1.1379
36791	1.1175
36792	1.1093
36793	1.0282
36794	0.95977
36795	0.96235
36796	0.77169
36797	0.97112
36798	0.95726
36799	1.0897
36800	1.1207
36801	0.92144
36802	1.1562
36803	1.1585
36804	1.1027
36805	1.1195
36806	0.9984
36807	0.61916
36808	0.51487
36809	0.80507
36810	0.60464
36811	0.96235
36812	1.7099
36813	1.6561
36814	1.6608
36815	1.6892
36816	1.6935
36817	2.2477
36818	2.2569
36819	2.0804
36820	1.9266
36821	1.3921
36822	1.0272
36823	1.1661
36824	1.477
36825	1.5276
36826	1.3198
36827	0.71143
36828	0.29869
36829	0.21476
36830	2.121
36831	2.14
36832	1.6608
36833	1.8889
36834	1.9969
36835	1.5908
36836	5.1416
36837	8.8074
36838	5.2244
36839	10.681
36840	6.8839
36841	6.5091
36842	11.14
36843	8.1554
36844	6.5803
36845	4.4389
36846	6.9227
36847	6.3989
36848	6.3429
36849	6.3195
36850	6.2963
36851	5.3952
36852	4.6792
36853	5.7707
36854	6.6831
36855	5.8918
36856	5.4881
36857	4.6903
36858	5.7946
36859	7.5026
36860	4.4293
36861	7.1206
36862	6.1065
36863	7.1515
36864	6.5476
36865	3.1685
36866	3.4768
36867	1.4855
36868	1.6244
36869	1.8762
36870	1.6691
36871	1.8484
36872	1.6325
36873	1.4
36874	1.1987
36875	2.1542
36876	2.1798
36877	2.1603
36878	1.0857
36879	1.0621
36880	0.71971
36881	0.83358
36882	1.101
36883	1.0318
36884	0.72885
36885	0.81853
36886	0.98558
36887	0.87847
36888	0.98791
36889	2.2094
36890	0.76429
36891	3.1368
36892	1.922
36893	2.791
36894	5.0501
36895	4.8209
36896	3.1236
36897	6.1454
36898	6.0523
36899	6.4541
36900	2.2594
36901	2.9538
36902	5.5135
36903	4.9669
36904	5.536
36905	2.1384
36906	3.8757
36907	4.9274
36908	0.42538
36909	0.44441
36910	0.56303
36911	0.34767
36912	0.37894
36913	0.51557
36914	0.56324
36915	0.61327
36916	0.45854
36917	0.5508
36918	0.42558
36919	0.40799
36920	0.40531
36921	0.62836
36922	0.46704
36923	0.49043
36924	0.70325
36925	0.82866
36926	0.80939
36927	0.61345
36928	0.33076
36929	0.39564
36930	0.5207
36931	0.47241
36932	2.8485
36933	3.1237
36934	3.0541
36935	3.7772
36936	1.0401
36937	1.1259
36938	1.0456
36939	1.0105
36940	1.0705
36941	1.1072
36942	0.99014
36943	0.80432
36944	2.1848
36945	2.4812
36946	2.1213
36947	1.3785
36948	1.9398
36949	2.7416
36950	2.6299
36951	2.3812
36952	1.9789
36953	1.6363
36954	1.2699
36955	2.4991
36956	2.9124
36957	2.7832
36958	2.53
36959	2.0939
36960	2.8053
36961	2.6093
36962	2.7391
36963	2.5703
36964	3.1918
36965	3.5298
36966	3.5205
36967	3.4381
36968	3.0814
36969	2.908
36970	2.7331
36971	2.3204
36972	1.8714
36973	2.3728
36974	2.1674
36975	2.4082
36976	0.89345
36977	0.84731
36978	0.93756
36979	1.0196
36980	0.98236
36981	1.0605
36982	1.0226
36983	0.78035
36984	0.77084
36985	2.0574
36986	2.1175
36987	1.8902
36988	1.3606
36989	1.2184
36990	1.4671
36991	1.2481
36992	1.5174
36993	1.1808
36994	1.1174
36995	1.4335
36996	1.3637
36997	1.9489
36998	1.8305
36999	2.3873
37000	2.047
37001	1.876
37002	2.644
37003	1.6504
37004	1.958
37005	1.4947
37006	2.2452
37007	1.9303
37008	1.9643
37009	2.7043
37010	1.6437
37011	2.0832
37012	9.9205e-002
37013	8.5617e-002
37014	8.0945e-002
37015	0.11742
37016	0.14347
37017	9.8777e-002
37018	0.10475
37019	9.838e-002
37020	0.48215
37021	0.39771
37022	0.13968
37023	0.42012
37024	0.43044
37025	0.33929
37026	0.22199
37027	0.21069
37028	0.33708
37029	0.12026
37030	0.40408
37031	3.7129
37032	4.2692
37033	5.0408
37034	4.5434
37035	4.684
37036	5.1542
37037	4.4258
37038	4.8099
37039	4.6456
37040	5.463
37041	5.9657
37042	6.758
37043	5.2376
37044	5.1419
37045	0.9505
37046	0.71664
37047	0.87316
37048	0.77627
37049	0.38578
37050	0.40406
37051	0.47958
37052	0.41856
37053	0.28881
37054	0.24456
37055	0.38189
37056	0.3524
37057	0.30352
37058	0.58062
37059	0.48712
37060	0.24857
37061	0.20535
37062	0.58115
37063	2.4734
37064	2.4248
37065	1.6319
37066	2.5917
37067	2.6025
37068	2.7495
37069	2.5021
37070	2.4853
37071	2.2202
37072	2.1752
37073	2.2873
37074	1.8446
37075	2.3998
37076	2.0266
37077	2.0839
37078	2.714
37079	2.4877
37080	0.25662
37081	0.34422
37082	0.2914
37083	0.26336
37084	0.2199
37085	0.22434
37086	0.30056
37087	0.39145
37088	0.62184
37089	0.57804
37090	0.33686
37091	0.35765
37092	1.25
37093	1.1811
37094	1.2658
37095	1.2276
37096	1.309
37097	1.7135
37098	1.6806
37099	1.5767
37100	1.7583
37101	1.7676
37102	1.621
37103	1.822
37104	1.7127
37105	1.6519
37106	1.5815
37107	1.7264
37108	2.3495
37109	2.1776
37110	2.1622
37111	2.2538
37112	1.603
37113	0.98191
37114	1.0292
37115	0.95025
37116	0.935
37117	1.0854
37118	0.99266
37119	1.028
37120	0.96528
37121	1.0669
37122	0.99867
37123	1.0823
37124	0.96475
37125	1.0265
37126	0.85164
37127	1.0883
37128	1.135
37129	1.0717
37130	0.86705
37131	0.98095
37132	0.75096
37133	0.72682
37134	1.028
37135	0.87726
37136	4.8486
37137	4.9173
37138	3.6939
37139	3.0913
37140	3.4313
37141	5.9093
37142	5.2944
37143	4.6474
37144	5.7197
37145	3.9745
37146	0.86849
37147	0.89928
37148	0.79769
37149	0.77159
37150	0.93202
37151	0.99183
37152	0.75158
37153	0.67662
37154	0.64799
37155	3.5552
37156	3.625
37157	3.9876
37158	3.2251
37159	2.7341
37160	2.5442
37161	2.9088
37162	5.5535
37163	6.4999
37164	7.173
37165	6.1186
37166	5.6939
37167	3.6009
37168	4.3109
37169	4.1432
37170	5.0638
37171	4.5788
37172	4.1643
37173	6.0189
37174	4.3119
37175	3.8807
37176	3.7048
37177	3.7159
37178	3.855
37179	3.6555
37180	3.6636
37181	3.36
37182	4.4701
37183	1.26
37184	1.3328
37185	1.1484
37186	1.4907
37187	1.0771
37188	0.87833
37189	1.3223
37190	1.4358
37191	1.105
37192	0.91404
37193	0.83665
37194	1.1088
37195	1.4853
37196	1.2422
37197	1.5255
37198	1.2104
37199	1.6977
37200	1.2393
37201	0.94943
37202	1.0613
37203	0.56949
37204	0.6838
37205	0.6683
37206	0.49536
37207	0.4638
37208	1.9314
37209	2.3443
37210	1.8822
37211	1.5791
37212	1.6615
37213	1.5604
37214	1.171
37215	1.4084
37216	1.4476
37217	3.0859
37218	1.3028
37219	1.8884
37220	2.792
37221	2.2678
37222	2.0476
37223	1.5559
37224	1.4386
37225	1.534
37226	3.1181
37227	0.88903
37228	0.709
37229	0.81959
37230	0.84382
37231	0.95862
37232	0.95975
37233	0.89318
37234	0.79238
37235	0.79421
37236	0.95643
37237	0.94309
37238	1.0251
37239	1.1037
37240	1.2326
37241	1.0228
37242	1.0768
37243	1.0137
37244	1.3656
37245	1.1949
37246	0.76433
37247	0.89185
37248	2.1571
37249	2.6493
37250	2.3992
37251	2.3223
37252	2.3262
37253	1.8481
37254	1.783
37255	1.6836
37256	2.0509
37257	1.7733
37258	4.1542
37259	4.2914
37260	3.4722
37261	4.4023
37262	2.8554
37263	4.3161
37264	4.2161
37265	3.4862
37266	3.58
37267	4.4343
37268	3.6925
37269	3.6489
37270	4.1999
37271	4.4
37272	3.7316
37273	3.8013
37274	4.3126
37275	2.1115
37276	1.9258
37277	3.3426
37278	4.8587
37279	3.7753
37280	3.0283
37281	2.3511
37282	3.4259
37283	4.4319
37284	2.4399
37285	3.6121
37286	2.6993
37287	3.8015
37288	3.3615
37289	5.3209
37290	5.1621
37291	4.339
37292	3.3727
37293	3.3001
37294	2.6061
37295	2.0888
37296	1.7367
37297	2.7974
37298	2.5723
37299	1.6867
37300	2.2172
37301	2.1917
37302	1.9251
37303	1.8334
37304	1.1638
37305	1.4239
37306	1.1803
37307	1.2006
37308	2.0361
37309	1.9666
37310	1.3944
37311	1.4184
37312	1.0911
37313	1.2649
37314	1.7961
37315	1.7197
37316	1.3974
37317	1.3698
37318	0.56838
37319	0.85669
37320	0.82923
37321	0.69275
37322	0.36291
37323	0.80037
37324	0.77452
37325	0.64664
37326	0.54995
37327	0.44859
37328	0.17339
37329	0.19422
37330	0.17767
37331	0.25215
37332	0.14712
37333	0.22216
37334	0.17676
37335	0.10876
37336	0.14554
37337	0.20848
37338	0.21633
37339	0.23755
37340	0.17606
37341	0.22988
37342	0.21659
37343	0.25031
37344	0.2581
37345	0.30041
37346	0.24127
37347	0.38191
37348	0.29703
37349	0.2768
37350	0.24822
37351	0.36402
37352	7.0277e-002
37353	0.16955
37354	0.11996
37355	0.12302
37356	0.16059
37357	0.21587
37358	0.16125
37359	0.25626
37360	0.2217
37361	0.46895
37362	0.56066
37363	0.30895
37364	0.39504
37365	0.45367
37366	0.31416
37367	0.38706
37368	0.28562
37369	0.29843
37370	1.0071
37371	2.2132
37372	0.59064
37373	3.0131
37374	3.0967
37375	0.57129
37376	0.71417
37377	3.129
37378	2.4622
37379	2.9919
37380	2.1237
37381	0.89375
37382	2.1489
37383	2.5296
37384	1.3979
37385	1.3511
37386	2.4216
37387	2.3718
37388	2.2929
37389	2.3965
37390	2.1712
37391	2.1995
37392	0.80897
37393	0.99104
37394	0.99424
37395	1.0935
37396	1.2067
37397	0.65886
37398	0.74823
37399	0.71409
37400	0.8333
37401	1.2181
37402	1.2432
37403	0.65324
37404	0.8894
37405	0.95206
37406	0.55505
37407	0.52648
37408	0.51981
37409	0.50803
37410	0.48809
37411	1.9055
37412	2.08
37413	1.8365
37414	2.203
37415	1.5159
37416	2.1599
37417	2.0489
37418	1.8331
37419	2.0529
37420	2.2562
37421	2.4938
37422	2.1774
37423	1.9437
37424	1.9739
37425	1.7668
37426	2.115
37427	4.8547
37428	4.9731
37429	5.1836
37430	4.2599
37431	4.0788
37432	2.9684
37433	5.3959
37434	5.7089
37435	5.399
37436	5.0167
37437	0.39066
37438	0.30884
37439	0.29236
37440	0.39366
37441	0.43426
37442	0.25853
37443	0.24451
37444	1.0774
37445	1.1647
37446	0.97485
37447	1.0059
37448	0.79588
37449	0.98212
37450	0.8244
37451	0.91908
37452	0.79925
37453	0.71359
37454	0.52264
37455	0.35301
37456	0.50245
37457	0.46888
37458	0.55819
37459	0.3781
37460	0.39886
37461	1.2186
37462	1.0728
37463	1.3664
37464	1.1857
37465	1.3159
37466	1.2796
37467	1.1781
37468	2.8915
37469	2.4918
37470	2.9348
37471	1.6879
37472	1.3413
37473	1.8118
37474	1.3095
37475	2.8269
37476	1.2527
37477	1.2121
37478	1.7799
37479	0.89375
37480	0.87096
37481	0.87631
37482	0.79206
37483	0.85029
37484	0.8024
37485	1.1062
37486	1.0923
37487	1.0678
37488	1.3646
37489	2.1169
37490	1.5143
37491	2.4754
37492	2.4876
37493	2.6442
37494	1.8607
37495	1.3766
37496	2.1274
37497	1.5825
37498	1.0262
37499	1.0914
37500	1.0274
37501	0.70538
37502	0.6625
37503	0.58309
37504	0.95888
37505	0.76668
37506	0.5268
37507	0.49967
37508	0.45996
37509	0.49084
37510	0.41059
37511	0.49644
37512	0.52906
37513	0.54586
37514	0.50914
37515	0.47005
37516	0.3834
37517	0.46401
37518	0.46736
37519	0.44263
37520	0.54293
37521	0.50422
37522	0.45087
37523	0.4728
37524	0.85683
37525	0.85464
37526	0.89227
37527	0.71977
37528	0.94471
37529	0.73952
37530	0.78848
37531	0.95384
37532	0.88964
37533	0.93445
37534	0.92518
37535	3.1661
37536	3.4757
37537	4.3707
37538	3.8027
37539	3.529
37540	3.2154
37541	4.1203
37542	4.9427
37543	3.177
37544	3.6434
37545	3.6383
37546	3.5584
37547	3.7461
37548	3.262
37549	3.2785
37550	1.2214
37551	0.99887
37552	1.1686
37553	1.1602
37554	1.2142
37555	1.2382
37556	1.1853
37557	1.1677
37558	1.0761
37559	1.1659
37560	1.1617
37561	1.1025
37562	1.1238
37563	1.0366
37564	0.92847
37565	1.0079
37566	1.3475
37567	1.4757
37568	1.2036
37569	1.0347
37570	1.5048
37571	0.91554
37572	1.4224
37573	1.8479
37574	1.2981
37575	0.28619
37576	0.28646
37577	0.27957
37578	0.35252
37579	0.25488
37580	0.25355
37581	0.36001
37582	0.43831
37583	1.3342
37584	1.4651
37585	1.2757
37586	1.4727
37587	1.4449
37588	2.7673
37589	2.7931
37590	2.0583
37591	2.8032
37592	1.5671
37593	1.3865
37594	1.5565
37595	1.1383
37596	2.1271
37597	3.0342
37598	0.91033
37599	1.2547
37600	3.0133
37601	2.0964
37602	1.6839
37603	2.9062
37604	3.1507
37605	2.2394
37606	2.9821
37607	2.2415
37608	0.95721
37609	1.0133
37610	2.7213
37611	1.8115
37612	1.1876
37613	1.223
37614	2.2856
37615	1.7973
37616	2.999
37617	2.155
37618	1.2666
37619	1.8346
37620	2.3364
37621	2.7913
37622	2.0967
37623	2.2494
37624	1.8574
37625	1.8476
37626	2.1967
37627	1.938
37628	1.8075
37629	1.7348
37630	1.9058
37631	1.596
37632	2.1369
37633	1.8477
37634	1.1907
37635	1.2755
37636	1.3585
37637	1.2801
37638	1.4107
37639	1.3454
37640	1.2204
37641	1.2808
37642	1.165
37643	1.0748
37644	1.0516
37645	1.0127
37646	0.92954
37647	0.73482
37648	0.7311
37649	0.66172
37650	0.75001
37651	0.82263
37652	0.84232
37653	1.0377
37654	0.96129
37655	0.81635
37656	1.8764
37657	1.7993
37658	1.8603
37659	1.1357
37660	0.85326
37661	1.7118
37662	1.5941
37663	1.4742
37664	0.10433
37665	7.4121e-002
37666	0.13849
37667	0.24625
37668	0.25222
37669	0.13896
37670	6.5132e-002
37671	6.1139e-002
37672	0.15895
37673	0.11317
37674	0.19455
37675	0.25218
37676	6.8974e-002
37677	6.6607e-002
37678	0.10917
37679	0.17525
37680	0.13993
37681	0.20374
37682	2.8859
37683	2.7772
37684	2.823
37685	2.8743
37686	2.912
37687	2.1715
37688	2.4174
37689	2.2462
37690	2.0132
37691	2.3195
37692	1.0417
37693	2.6518
37694	1.3555
37695	2.5216
37696	1.5623
37697	0.7696
37698	0.73815
37699	0.60497
37700	0.64589
37701	0.7253
37702	0.65288
37703	0.78746
37704	0.711
37705	0.71207
37706	0.66753
37707	1.4535
37708	1.3641
37709	1.5346
37710	1.3863
37711	1.5641
37712	1.5713
37713	1.7093
37714	1.6222
37715	1.7587
37716	1.51
37717	1.4427
37718	1.683
37719	0.81951
37720	0.96124
37721	1.1734
37722	1.0903
37723	0.97475
37724	1.5173
37725	0.65998
37726	0.60608
37727	0.55288
37728	0.65059
37729	0.77902
37730	1.6143
37731	1.2012
37732	1.3951
37733	0.50758
37734	0.84438
37735	1.0596
37736	0.95447
37737	0.81155
37738	1.0517
37739	1.1084
37740	1.0996
37741	0.99369
37742	1.1279
37743	1.1921
37744	1.1359
37745	1.2433
37746	1.1386
37747	2.896
37748	2.3888
37749	1.8634
37750	5.2836
37751	5.577
37752	5.274
37753	4.7816
37754	3.9441
37755	4.9307
37756	4.672
37757	4.1852
37758	3.9501
37759	0.86191
37760	0.72138
37761	0.45107
37762	0.32161
37763	0.79131
37764	0.22754
37765	0.32513
37766	0.19989
37767	0.29172
37768	0.39617
37769	0.33546
37770	0.59808
37771	0.48466
37772	0.93658
37773	0.92301
37774	0.67321
37775	0.68497
37776	0.70712
37777	0.92387
37778	1.1627
37779	1.0703
37780	0.78142
37781	0.78065
37782	0.66892
37783	0.73141
37784	1.0544
37785	1.0842
37786	2.8219
37787	2.0574
37788	2.9376
37789	1.8282
37790	1.5458
37791	2.8944
37792	2.3487
37793	2.1821
37794	1.9142
37795	2.0499
37796	2.8634
37797	2.0758
37798	2.6949
37799	2.1091
37800	0.60597
37801	0.91393
37802	0.90636
37803	0.7577
37804	1.1549
37805	1.1499
37806	1.0522
37807	1.026
37808	0.86935
37809	0.70771
37810	0.55678
37811	4.2474
37812	3.3407
37813	4.8466
37814	4.8558
37815	4.1785
37816	3.3638
37817	4.0977
37818	4.3404
37819	3.3104
37820	1.1592
37821	1.1944
37822	1.1755
37823	1.167
37824	1.2522
37825	1.3019
37826	1.2782
37827	2.3355
37828	1.9896
37829	2.5248
37830	1.7378
37831	2.2444
37832	1.5618
37833	1.5268
37834	1.9741
37835	1.504
37836	1.6253
37837	1.4646
37838	1.438
37839	1.0775
37840	1.5405
37841	1.3871
37842	2.644
37843	2.5463
37844	2.8937
37845	2.5558
37846	2.0126
37847	1.2036
37848	1.3337
37849	1.3466
37850	1.2078
37851	1.3654
37852	1.4582
37853	1.5939
37854	2.1721
37855	2.0668
37856	1.7924
37857	1.9714
37858	1.734
37859	1.7612
37860	1.5538
37861	1.6443
37862	1.7105
37863	2.0776
37864	1.9505
37865	1.4391
37866	1.3866
37867	1.6358
37868	1.2913
37869	1.7879
37870	1.8355
37871	1.89
37872	2.1362
37873	2.227
37874	2.274
37875	0.95919
37876	0.83766
37877	0.78711
37878	0.57611
37879	0.72097
37880	0.53278
37881	0.51311
37882	0.70964
37883	1.375
37884	1.4558
37885	0.99207
37886	1.1462
37887	1.2193
37888	1.5032
37889	1.5662
37890	1.2394
37891	0.47322
37892	0.54657
37893	0.49497
37894	0.65544
37895	0.64825
37896	0.61809
37897	0.26291
37898	0.23923
37899	0.27978
37900	0.33645
37901	0.3958
37902	0.49416
37903	1.3227
37904	1.1526
37905	1.2699
37906	1.3183
37907	1.0242
37908	1.2197
37909	1.1098
37910	0.9211
37911	1.0668
37912	1.0308
37913	0.86879
37914	1.0595
37915	1.0348
37916	0.87741
37917	1.1437
37918	1.1003
37919	1.1485
37920	1.1666
37921	1.0523
37922	0.98951
37923	1.0806
37924	1.0581
37925	0.9667
37926	1.1415
37927	1.0407
37928	1.0935
37929	1.1729
37930	1.15
37931	1.0773
37932	1.1487
37933	0.98069
37934	1.1539
37935	1.0753
37936	1.0722
37937	1.018
37938	1.1081
37939	0.87195
37940	1.0056
37941	0.61223
37942	0.59786
37943	0.56155
37944	0.79244
37945	0.60087
37946	0.60454
37947	0.5383
37948	0.57933
37949	0.55498
37950	0.5498
37951	0.58019
37952	0.61371
37953	0.48227
37954	0.47936
37955	0.42316
37956	0.49181
37957	0.4198
37958	0.4969
37959	0.54811
37960	0.46605
37961	0.53689
37962	0.52394
37963	0.51076
37964	3.2252
37965	2.9304
37966	2.9595
37967	4.4483
37968	4.0955
37969	3.4888
37970	4.0645
37971	3.5271
37972	3.1824
37973	3.3506
37974	3.8787
37975	3.5365
37976	3.1105
37977	4.0684
37978	3.5023
37979	1.5856
37980	1.7677
37981	1.4729
37982	1.5042
37983	1.2271
37984	1.0803
37985	1.2582
37986	1.8615
37987	1.6226
37988	1.6163
37989	1.3818
37990	1.8947
37991	2.1715
37992	2.031
37993	2.1988
37994	1.4339
37995	1.2388
37996	2.0521
37997	1.9374
37998	1.6981
37999	1.4595
38000	1.3014
38001	1.4215
38002	1.4974
38003	1.6293
38004	2.0734
38005	1.9434
38006	0.98856
38007	0.9936
38008	1.0476
38009	0.66385
38010	0.63754
38011	1.0935
38012	1.0202
38013	0.96788
38014	0.76515
38015	0.6581
38016	1.011
38017	0.93401
38018	0.869
38019	0.72891
38020	0.25647
38021	0.46603
38022	0.20998
38023	0.29161
38024	0.26851
38025	0.13707
38026	0.11904
38027	0.24556
38028	0.16263
38029	0.33636
38030	0.17382
38031	0.34244
38032	2.928
38033	3.4411
38034	2.2884
38035	1.5117
38036	2.5838
38037	2.1231
38038	1.4138
38039	1.1303
38040	1.2159
38041	1.5031
38042	3.3325
38043	3.8156
38044	1.237
38045	1.3601
38046	0.69805
38047	0.58669
38048	0.82836
38049	0.71544
38050	0.6526
38051	0.7282
38052	0.80814
38053	0.73238
38054	0.83976
38055	0.83774
38056	0.86364
38057	0.82163
38058	0.74906
38059	1.2913
38060	1.4994
38061	1.7288
38062	1.5458
38063	1.2067
38064	1.5826
38065	2.0152
38066	2.2978
38067	2.014
38068	3.0427
38069	3.1147
38070	2.9431
38071	3.2203
38072	1.5588
38073	3.1565
38074	3.463
38075	2.3401
38076	1.6568
38077	3.0044
38078	3.4325
38079	0.67298
38080	1.4132
38081	1.0075
38082	1.5094
38083	1.8249
38084	0.94676
38085	0.26404
38086	0.7101
38087	1.3498
38088	0.16334
38089	0.70447
38090	1.5496
38091	1.5468
38092	1.457
38093	1.4005
38094	1.0856
38095	1.4233
38096	1.3309
38097	1.2857
38098	1.2835
38099	1.1064
38100	1.107
38101	1.5651
38102	1.2746
38103	1.6369
38104	1.7418
38105	1.2554
38106	1.2976
38107	2.2377
38108	2.8734
38109	1.4686
38110	2.3075
38111	2.9357
38112	3.422
38113	2.069
38114	2.2968
38115	3.8351
38116	3.7156
38117	2.5981
38118	2.2178
38119	3.6191
38120	2.7182
38121	2.5468
38122	2.1477
38123	1.9334
38124	2.1145
38125	2.2707
38126	2.4001
38127	2.64
38128	2.8009
38129	2.6692
38130	2.5522
38131	2.4696
38132	2.2974
38133	2.3276
38134	2.1838
38135	2.1711
38136	2.2072
38137	2.1765
38138	2.4268
38139	2.3495
38140	1.7594
38141	1.9016
38142	2.3012
38143	2.1338
38144	2.4651
38145	2.0059
38146	2.2628
38147	2.1406
38148	2.4371
38149	1.8871
38150	1.3048
38151	1.7507
38152	2.3051
38153	2.1238
38154	2.1598
38155	1.6373
38156	1.7213
38157	1.6195
38158	2.2497
38159	1.9601
38160	1.1965
38161	1.0233
38162	1.1351
38163	0.8601
38164	0.76779
38165	1.2299
38166	1.225
38167	1.1084
38168	0.98537
38169	1.1187
38170	1.0446
38171	1.0553
38172	0.8275
38173	0.86406
38174	1.2062
38175	1.2319
38176	1.3134
38177	1.3348
38178	0.9708
38179	1.0253
38180	1.0137
38181	0.75317
38182	0.789
38183	1.0207
38184	0.93346
38185	0.97315
38186	0.81429
38187	0.78374
38188	0.64379
38189	0.53266
38190	0.51909
38191	1.1448
38192	1.0528
38193	1.1819
38194	1.2456
38195	1.272
38196	1.1386
38197	1.1391
38198	0.96157
38199	0.8747
38200	0.92419
38201	0.98308
38202	0.90519
38203	1.1194
38204	1.1081
38205	0.91298
38206	0.7784
38207	0.78999
38208	2.8868
38209	2.9848
38210	2.8715
38211	2.0743
38212	2.1318
38213	1.8568
38214	2.9468
38215	2.1687
38216	1.9923
38217	2.4069
38218	0.99217
38219	1.0805
38220	1.0666
38221	0.95631
38222	0.64208
38223	0.967
38224	0.90642
38225	0.90298
38226	0.68268
38227	1.2345
38228	1.2675
38229	1.6574
38230	1.3925
38231	1.8683
38232	1.3492
38233	1.7336
38234	1.6511
38235	1.632
38236	1.4124
38237	1.4738
38238	0.78235
38239	0.66676
38240	0.79163
38241	0.71794
38242	0.79643
38243	0.80488
38244	0.80013
38245	0.6974
38246	0.84659
38247	0.83175
38248	0.79317
38249	0.76238
38250	0.77158
38251	0.81866
38252	0.82174
38253	0.82049
38254	0.76739
38255	4.1062
38256	3.6363
38257	2.5916
38258	2.7046
38259	3.95
38260	1.6008
38261	1.7279
38262	1.8673
38263	2.1391
38264	2.3838
38265	2.0868
38266	2.1251
38267	2.0105
38268	1.9808
38269	2.0737
38270	2.3453
38271	1.8467
38272	1.7122
38273	2.1002
38274	0.82294
38275	0.89979
38276	0.9057
38277	0.82792
38278	0.78322
38279	0.90255
38280	0.7102
38281	0.7523
38282	0.9208
38283	0.83545
38284	0.91073
38285	0.8842
38286	0.75901
38287	0.93137
38288	1.5143
38289	1.2538
38290	1.365
38291	1.2943
38292	1.2341
38293	1.2853
38294	1.2178
38295	1.6306
38296	1.6067
38297	1.5013
38298	1.3371
38299	1.2614
38300	1.4294
38301	1.58
38302	1.0259
38303	1.0672
38304	1.0344
38305	1.0343
38306	1.0931
38307	1.035
38308	1.116
38309	1.0704
38310	1.1434
38311	1.0818
38312	0.99502
38313	0.90848
38314	0.88838
38315	0.80691
38316	2.5301
38317	2.6548
38318	1.9114
38319	2.6883
38320	1.1205
38321	1.7096
38322	2.0147
38323	1.4879
38324	2.5216
38325	1.5648
38326	0.52921
38327	0.77107
38328	1.1174
38329	1.861
38330	1.0734
38331	0.59612
38332	2.2299
38333	2.9219
38334	2.6216
38335	3.6347
38336	1.756
38337	1.4344
38338	4.5146
38339	4.0791
38340	4.262
38341	3.964
38342	3.332
38343	3.9048
38344	3.2238
38345	2.323
38346	4.6521
38347	4.044
38348	3.5649
38349	4.2209
38350	3.9638
38351	2.3794
38352	3.4756
38353	1.8245
38354	0.81427
38355	1.1256
38356	1.184
38357	1.1194
38358	0.87753
38359	1.0767
38360	0.93861
38361	1.0264
38362	0.96777
38363	0.87573
38364	0.99952
38365	1.2262
38366	1.0961
38367	0.95209
38368	1.1686
38369	2.8716
38370	2.7753
38371	2.7912
38372	2.8284
38373	1.204
38374	1.7225
38375	1.1468
38376	0.66319
38377	1.9861
38378	2.9104
38379	1.7779
38380	2.74
38381	2.21
38382	2.1543
38383	2.9816
38384	2.4855
38385	1.8673
38386	1.1858
38387	1.2109
38388	0.92755
38389	0.70535
38390	0.70599
38391	0.83867
38392	0.95408
38393	1.0009
38394	0.79257
38395	0.53308
38396	0.78838
38397	0.92174
38398	1.5585
38399	1.8482
38400	1.616
38401	1.7162
38402	1.4998
38403	1.4661
38404	1.4584
38405	1.5616
38406	3.8459
38407	3.9592
38408	3.4453
38409	3.8154
38410	3.946
38411	4.0886
38412	3.9091
38413	4.0358
38414	3.3608
38415	1.576
38416	3.7346
38417	2.8431
38418	2.4223
38419	3.0382
38420	3.1433
38421	3.9392
38422	3.6615
38423	2.9938
38424	1.5542
38425	2.1621
38426	2.1099
38427	2.0935
38428	1.5613
38429	1.7995
38430	2.2058
38431	2.1506
38432	1.7171
38433	0.69732
38434	0.84578
38435	0.54682
38436	1.0723
38437	1.2623
38438	1.3517
38439	2.9836
38440	2.9817
38441	1.9233
38442	1.5189
38443	2.7471
38444	1.7584
38445	1.0137
38446	1.0025
38447	0.9463
38448	0.80272
38449	0.77464
38450	0.91456
38451	1.0634
38452	0.82374
38453	1.1645
38454	1.112
38455	0.78331
38456	1.0264
38457	0.62574
38458	0.61863
38459	0.67515
38460	0.57145
38461	0.68319
38462	0.58432
38463	0.47913
38464	0.78245
38465	0.51129
38466	0.41957
38467	5.2132
38468	4.9096
38469	3.0194
38470	4.5795
38471	3.7511
38472	3.3028
38473	5.6888
38474	3.3213
38475	2.852
38476	4.2
38477	3.5385
38478	4.4444
38479	3.8242
38480	4.2956
38481	4.4944
38482	5.0357
38483	1.0994
38484	1.067
38485	0.96147
38486	1.2087
38487	1.1489
38488	1.2673
38489	1.2202
38490	0.54747
38491	0.51527
38492	0.51717
38493	0.65228
38494	0.74496
38495	0.7064
38496	0.4648
38497	0.91838
38498	0.79617
38499	0.82604
38500	1.0138
38501	0.98725
38502	0.85262
38503	0.98048
38504	0.97838
38505	1.0104
38506	1.3334
38507	1.5661
38508	1.1925
38509	1.2925
38510	1.1122
38511	1.0456
38512	1.1467
38513	1.0893
38514	1.3154
38515	1.184
38516	1.3619
38517	1.5002
38518	1.2565
38519	1.3622
38520	3.0894
38521	2.7559
38522	3.2326
38523	3.0509
38524	2.2507
38525	1.9338
38526	1.9837
38527	2.8359
38528	3.2428
38529	3.0779
38530	3.5476
38531	2.1432
38532	2.4414
38533	2.4184
38534	2.588
38535	0.43964
38536	0.48886
38537	0.40856
38538	0.319
38539	3.7379
38540	3.9975
38541	4.3026
38542	3.7203
38543	3.7583
38544	3.4865
38545	3.9656
38546	3.1622
38547	3.3284
38548	1.2236
38549	1.1265
38550	1.0059
38551	2.3642
38552	1.8558
38553	0.94833
38554	1.3395
38555	1.2647
38556	1.4331
38557	2.9723
38558	2.2054
38559	3.0106
38560	1.5896
38561	2.1944
38562	1.0387
38563	0.77042
38564	2.3513
38565	1.947
38566	2.9372
38567	2.2848
38568	2.9548
38569	1.9174
38570	2.3222
38571	2.8913
38572	3.5994
38573	3.1252
38574	3.5333
38575	3.2308
38576	3.9504
38577	3.0617
38578	3.5171
38579	2.7474
38580	2.8073
38581	3.36
38582	3.0295
38583	4.0302
38584	3.2788
38585	3.3918
38586	3.177
38587	1.0968
38588	0.78414
38589	0.80643
38590	0.68488
38591	0.68862
38592	0.89166
38593	1.1285
38594	1.1266
38595	1.0871
38596	1.1342
38597	1.1381
38598	1.0235
38599	1.0364
38600	1.0455
38601	0.9908
38602	0.85552
38603	0.92886
38604	0.81702
38605	0.90611
38606	0.81474
38607	0.98294
38608	0.76084
38609	0.78629
38610	0.64561
38611	0.56565
38612	0.61658
38613	0.6131
38614	0.49127
38615	0.52173
38616	5.5757
38617	6.3098
38618	5.8327
38619	5.1689
38620	5.5302
38621	5.6356
38622	5.9059
38623	5.1768
38624	4.5776
38625	3.9382
38626	4.7089
38627	4.0726
38628	4.8023
38629	4.347
38630	3.3073
38631	2.705
38632	3.7527
38633	0.66299
38634	0.78297
38635	0.66123
38636	0.61055
38637	0.56238
38638	0.94292
38639	0.78984
38640	0.7378
38641	1.7161
38642	1.5647
38643	1.77
38644	1.8754
38645	1.6084
38646	1.6946
38647	1.6678
38648	1.4661
38649	1.7423
38650	1.3438
38651	1.519
38652	1.7942
38653	1.5091
38654	1.3923
38655	1.6418
38656	1.6688
38657	1.5335
38658	0.61475
38659	1.452
38660	1.114
38661	0.92986
38662	1.7077
38663	0.82611
38664	1.7043
38665	1.5524
38666	1.6569
38667	1.7204
38668	1.5117
38669	2.39
38670	2.831
38671	3.547
38672	2.5202
38673	1.4847
38674	0.23306
38675	0.21194
38676	0.22117
38677	0.20189
38678	0.38377
38679	0.28998
38680	0.32164
38681	0.46205
38682	0.34463
38683	0.6701
38684	0.60642
38685	0.61278
38686	0.48351
38687	0.50101
38688	0.42798
38689	1.2918
38690	2.1729
38691	1.6175
38692	1.7886
38693	1.3275
38694	1.0228
38695	2.0249
38696	2.3647
38697	2.0059
38698	1.5294
38699	0.19047
38700	0.15205
38701	0.18238
38702	0.14914
38703	0.15594
38704	0.11161
38705	6.8248e-002
38706	0.10607
38707	0.19976
38708	9.2486e-002
38709	0.31631
38710	9.9232e-002
38711	9.8392e-002
38712	7.6803e-002
38713	7.8152e-002
38714	6.6318e-002
38715	0.20091
38716	0.30752
38717	0.38518
38718	0.43763
38719	0.51258
38720	2.109
38721	2.0595
38722	2.3436
38723	1.7975
38724	1.7064
38725	2.3017
38726	2.6003
38727	2.7077
38728	1.3503
38729	1.3788
38730	1.1946
38731	1.4519
38732	1.2292
38733	1.2536
38734	1.5899
38735	1.5504
38736	1.6032
38737	1.9615
38738	1.9502
38739	2.073
38740	1.7178
38741	2.3798
38742	1.5695
38743	1.5991
38744	1.0683
38745	0.98994
38746	0.78867
38747	0.76838
38748	0.98866
38749	0.6997
38750	0.7983
38751	0.85521
38752	1.1579
38753	1.0991
38754	1.0133
38755	0.78407
38756	0.94523
38757	1.1018
38758	1.0337
38759	0.45212
38760	0.60229
38761	0.55061
38762	0.4874
38763	0.51697
38764	0.54166
38765	0.59045
38766	0.56736
38767	0.55119
38768	0.50667
38769	0.531
38770	0.44653
38771	0.49169
38772	0.44603
38773	0.60191
38774	0.75379
38775	0.82596
38776	0.82044
38777	0.77629
38778	0.63221
38779	0.96163
38780	1.0964
38781	1.036
38782	0.94718
38783	1.035
38784	0.8427
38785	0.96843
38786	0.83974
38787	0.81251
38788	0.71439
38789	0.96629
38790	1.1234
38791	1.0578
38792	0.99753
38793	1.0085
38794	0.95791
38795	0.97835
38796	0.83106
38797	1.0215
38798	0.99797
38799	0.87543
38800	0.84713
38801	0.86872
38802	0.62297
38803	0.66118
38804	1.0732
38805	1.4116
38806	1.5143
38807	1.4497
38808	1.6628
38809	1.5705
38810	1.6438
38811	1.5258
38812	1.6548
38813	1.5228
38814	1.4455
38815	1.5607
38816	1.5395
38817	1.487
38818	1.6509
38819	1.6006
38820	1.7077
38821	1.6224
38822	1.6634
38823	1.7516
38824	1.809
38825	2.7906
38826	2.087
38827	2.6325
38828	0.29131
38829	0.92323
38830	0.58018
38831	0.52601
38832	2.8325
38833	2.1204
38834	2.8914
38835	2.3748
38836	1.1033
38837	2.4351
38838	1.9783
38839	1.8101
38840	2.7606
38841	0.36721
38842	0.51415
38843	3.0336
38844	2.3121
38845	1.6711
38846	2.0698
38847	0.9653
38848	0.56248
38849	1.1628
38850	0.51159
38851	1.3563
38852	0.68717
38853	0.78626
38854	1.1235
38855	1.9712
38856	1.2221
38857	1.0854
38858	1.1632
38859	0.9761
38860	2.2465
38861	1.9106
38862	1.819
38863	2.0582
38864	0.3735
38865	0.40485
38866	0.31596
38867	0.30203
38868	0.92248
38869	0.61326
38870	0.69992
38871	0.47379
38872	0.62063
38873	0.44627
38874	0.43043
38875	0.55094
38876	0.58546
38877	0.70541
38878	0.726
38879	0.60912
38880	0.5585
38881	0.60167
38882	0.84955
38883	0.90758
38884	0.68285
38885	0.68195
38886	1.2161
38887	1.0733
38888	1.0409
38889	0.96854
38890	0.92841
38891	0.8658
38892	1.3049
38893	1.3171
38894	1.0617
38895	0.11423
38896	0.2043
38897	0.16386
38898	0.13543
38899	0.10625
38900	0.17845
38901	0.23202
38902	0.14103
38903	0.18453
38904	0.10835
38905	0.15442
38906	0.72171
38907	0.55584
38908	0.59519
38909	0.4948
38910	0.46544
38911	0.39657
38912	0.35181
38913	0.56996
38914	0.41386
38915	0.41021
38916	0.27193
38917	0.25938
38918	0.65153
38919	0.61036
38920	0.61159
38921	1.2314
38922	0.98691
38923	0.95699
38924	1.1135
38925	0.84259
38926	0.8269
38927	0.9873
38928	0.98203
38929	1.0866
38930	1.325
38931	1.8859
38932	1.7841
38933	1.3145
38934	1.6672
38935	1.4367
38936	1.7149
38937	1.4844
38938	1.6948
38939	0.18831
38940	0.43622
38941	9.8324e-002
38942	0.40872
38943	0.13718
38944	0.15458
38945	1.012
38946	0.69263
38947	2.4714
38948	1.5672
38949	1.3465
38950	2.7277
38951	2.2215
38952	1.9336
38953	2.196
38954	1.4415
38955	1.2928
38956	1.4171
38957	1.6929
38958	1.9837
38959	1.6366
38960	1.8754
38961	1.2083
38962	1.2419
38963	1.39
38964	1.4386
38965	1.378
38966	1.5217
38967	1.8812
38968	2.066
38969	2.2009
38970	1.8726
38971	2.0397
38972	1.4521
38973	1.9844
38974	1.9807
38975	1.8241
38976	1.6955
38977	1.7771
38978	1.5812
38979	1.4133
38980	2.0626
38981	1.8517
38982	1.5303
38983	1.3849
38984	1.7802
38985	1.1226
38986	1.5119
38987	1.742
38988	0.95424
38989	1.3137
38990	1.1701
38991	1.4373
38992	1.3854
38993	1.2167
38994	1.0635
38995	1.5609
38996	1.7905
38997	1.1515
38998	1.0198
38999	1.7638
39000	1.8256
39001	1.6494
39002	1.5293
39003	1.6344
39004	1.6482
39005	1.6806
39006	1.4185
39007	1.4142
39008	1.4828
39009	3.4297
39010	5.8573
39011	5.4301
39012	6.3969
39013	5.7835
39014	5.3723
39015	6.1618
39016	2.3668
39017	3.0603
39018	3.5955
39019	1.5797
39020	3.4238
39021	3.112
39022	2.432
39023	1.8254
39024	2.3689
39025	2.29
39026	6.9178
39027	5.8344
39028	5.568
39029	6.4842
39030	9.2026
39031	4.8644
39032	4.7263
39033	4.7504
39034	5.6555
39035	6.3593
39036	4.4144
39037	0.6208
39038	0.58311
39039	0.6229
39040	0.5029
39041	0.57802
39042	0.57657
39043	0.54314
39044	0.4699
39045	0.54091
39046	0.47508
39047	0.56112
39048	0.51574
39049	1.0975
39050	1.0406
39051	1.0878
39052	1.1964
39053	1.21
39054	1.2517
39055	1.1694
39056	1.0979
39057	1.1374
39058	0.98189
39059	0.89099
39060	1.1897
39061	1.2151
39062	1.1479
39063	1.1941
39064	1.1694
39065	0.8209
39066	0.65627
39067	0.59017
39068	0.67609
39069	1.2862
39070	0.80002
39071	0.85911
39072	0.74022
39073	0.74481
39074	0.63955
39075	0.64024
39076	0.64963
39077	0.75825
39078	0.93635
39079	0.99778
39080	0.90397
39081	0.98384
39082	0.89988
39083	1.197
39084	1.1163
39085	1.0531
39086	1.1971
39087	1.1333
39088	1.1595
39089	1.0955
39090	1.1584
39091	1.0736
39092	1.1816
39093	1.185
39094	1.0871
39095	1.7683
39096	1.0155
39097	1.2584
39098	1.4909
39099	1.6196
39100	1.2133
39101	1.1223
39102	1.1291
39103	0.97262
39104	1.1161
39105	1.3122
39106	1.5498
39107	0.72454
39108	0.42324
39109	0.66191
39110	0.82947
39111	1.8449
39112	1.6665
39113	1.2995
39114	1.6621
39115	2.219
39116	1.8637
39117	0.84692
39118	0.27832
39119	0.81304
39120	0.60175
39121	1.2105
39122	1.1342
39123	1.1572
39124	1.0265
39125	0.93195
39126	1.0865
39127	0.9854
39128	1.154
39129	1.0245
39130	1.2253
39131	1.3541
39132	1.1902
39133	1.0345
39134	1.3568
39135	1.4688
39136	1.1398
39137	0.96139
39138	1.0861
39139	1.3525
39140	1.233
39141	1.0683
39142	1.1999
39143	1.192
39144	1.114
39145	1.1568
39146	1.2436
39147	1.2492
39148	1.2281
39149	1.2391
39150	1.1891
39151	1.1707
39152	1.0661
39153	1.2209
39154	1.1351
39155	2.1082
39156	2.106
39157	1.7475
39158	2.3482
39159	2.6177
39160	2.2928
39161	2.1971
39162	2.5507
39163	2.4136
39164	2.25
39165	1.9369
39166	1.3079
39167	1.3087
39168	2.61
39169	2.1493
39170	2.8062
39171	2.2994
39172	2.6952
39173	2.0962
39174	1.6258
39175	2.115
39176	2.0056
39177	1.8934
39178	2.2374
39179	2.0639
39180	2.2184
39181	2.0892
39182	1.8065
39183	1.8744
39184	2.2616
39185	2.0548
39186	2.1926
39187	2.0518
39188	4.1068
39189	1.5845
39190	4.1393
39191	1.9562
39192	3.8605
39193	3.2411
39194	1.8143
39195	1.7626
39196	4.1373
39197	3.2388
39198	2.706
39199	4.2658
39200	4.0645
39201	3.6119
39202	3.4729
39203	2.7744
39204	2.6573
39205	2.4494
39206	2.5041
39207	2.0972
39208	2.2125
39209	1.9043
39210	2.8088
39211	1.9723
39212	2.1929
39213	2.6141
39214	1.0994
39215	1.0883
39216	0.81338
39217	0.78767
39218	1.053
39219	1.0892
39220	1.1425
39221	1.1012
39222	1.0826
39223	0.9353
39224	0.89924
39225	1.0093
39226	1.0622
39227	1.0249
39228	0.96024
39229	1.0605
39230	2.4932
39231	2.5849
39232	2.136
39233	1.7702
39234	2.6901
39235	0.46099
39236	0.53963
39237	0.54502
39238	0.49467
39239	0.69423
39240	0.58435
39241	0.56985
39242	0.53997
39243	0.65223
39244	0.6509
39245	0.86797
39246	0.80376
39247	0.72539
39248	0.67537
39249	0.72538
39250	0.6753
39251	0.69109
39252	1.2808
39253	1.4249
39254	1.3716
39255	1.5544
39256	1.5846
39257	1.67
39258	1.6148
39259	1.5892
39260	1.5448
39261	1.6352
39262	4.2652
39263	3.9087
39264	1.7006
39265	4.5785
39266	3.9397
39267	3.1443
39268	1.7641
39269	1.8598
39270	4.0562
39271	4.1329
39272	3.221
39273	2.9973
39274	2.4605
39275	3.126
39276	3.4531
39277	3.8339
39278	3.0428
39279	0.42746
39280	0.34335
39281	1.2479
39282	0.28562
39283	0.3149
39284	0.57591
39285	0.53211
39286	1.2195
39287	1.009
39288	0.63166
39289	1.7439
39290	0.70245
39291	0.44509
39292	1.2121
39293	0.63276
39294	0.31067
39295	0.67289
39296	1.369
39297	1.1819
39298	0.49919
39299	0.6461
39300	0.8964
39301	0.62431
39302	1.2219
39303	1.6996
39304	0.45195
39305	0.44396
39306	0.94719
39307	1.3332
39308	0.80601
39309	1.0584
39310	1.1793
39311	0.82585
39312	0.70652
39313	0.57075
39314	0.5187
39315	0.30362
39316	0.26098
39317	0.28948
39318	0.35292
39319	0.40111
39320	0.27478
39321	0.33273
39322	1.5128
39323	1.5419
39324	1.3284
39325	1.348
39326	1.4542
39327	1.5025
39328	1.4521
39329	1.3477
39330	1.3436
39331	1.4384
39332	1.5771
39333	1.2367
39334	1.3694
39335	0.29646
39336	0.32782
39337	0.22554
39338	0.19368
39339	0.24548
39340	0.29795
39341	0.3795
39342	0.42119
39343	0.23396
39344	0.35497
39345	0.39134
39346	0.1405
39347	0.17437
39348	0.9323
39349	1.0125
39350	1.1612
39351	1.0439
39352	1.1414
39353	1.0009
39354	1.164
39355	1.171
39356	1.0959
39357	1.001
39358	1.1596
39359	1.1716
39360	1.1629
39361	1.0795
39362	0.93254
39363	1.0214
39364	1.14
39365	1.1018
39366	0.47099
39367	0.46021
39368	0.64841
39369	0.87731
39370	0.48681
39371	0.4931
39372	0.58384
39373	0.87403
39374	1.0255
39375	0.93873
39376	0.91046
39377	0.81604
39378	0.88476
39379	1.0482
39380	1.0393
39381	1.0341
39382	0.97374
39383	0.96654
39384	1.0816
39385	1.0464
39386	1.0396
39387	0.94807
39388	1.0857
39389	1.0885
39390	3.1341
39391	3.2631
39392	3.7943
39393	3.2311
39394	3.1735
39395	3.2477
39396	3.3138
39397	3.2451
39398	3.7639
39399	3.5527
39400	3.5954
39401	3.767
39402	3.216
39403	3.9081
39404	3.3352
39405	3.8463
39406	4.5095
39407	4.7206
39408	3.3241
39409	3.3929
39410	3.4511
39411	4.1258
39412	1.0892
39413	1.185
39414	1.0796
39415	0.99083
39416	1.0526
39417	1.011
39418	1.1068
39419	1.2505
39420	1.1368
39421	1.2689
39422	1.3343
39423	1.1922
39424	1.2497
39425	1.2069
39426	1.2916
39427	0.56821
39428	0.48373
39429	0.59951
39430	0.66196
39431	0.53362
39432	0.54691
39433	0.72773
39434	1.8658
39435	1.6225
39436	1.6732
39437	2.0271
39438	1.7119
39439	2.2047
39440	2.017
39441	2.1016
39442	2.1049
39443	1.9548
39444	2.1698
39445	1.9742
39446	0.4265
39447	0.48442
39448	0.40872
39449	0.45571
39450	0.4396
39451	0.50267
39452	0.49546
39453	0.51386
39454	0.33652
39455	0.32421
39456	0.19423
39457	0.51663
39458	0.31662
39459	0.26568
39460	0.50871
39461	0.45157
39462	0.10529
39463	8.505e-002
39464	6.2536e-002
39465	8.7336e-002
39466	9.0974e-002
39467	9.679e-002
39468	9.6227e-002
39469	7.6314e-002
39470	7.1233e-002
39471	6.7061e-002
39472	8.122e-002
39473	8.7043e-002
39474	7.382e-002
39475	0.65627
39476	0.66232
39477	0.82943
39478	0.78259
39479	0.84751
39480	0.8444
39481	0.70719
39482	0.74961
39483	0.7259
39484	1.2278
39485	1.0579
39486	1.2058
39487	1.2381
39488	1.0199
39489	0.87128
39490	1.2367
39491	1.0171
39492	1.0778
39493	0.94366
39494	3.5299
39495	3.1384
39496	4.0146
39497	1.9013
39498	3.7769
39499	2.4985
39500	2.3944
39501	2.2705
39502	3.1569
39503	2.9811
39504	1.9318
39505	1.5877
39506	2.3875
39507	1.7404
39508	1.2799
39509	0.85593
39510	0.78041
39511	0.83181
39512	0.81177
39513	0.89268
39514	0.80664
39515	0.73905
39516	0.781
39517	0.8547
39518	0.86043
39519	0.90291
39520	0.89516
39521	0.84143
39522	0.81065
39523	0.68471
39524	0.66377
39525	0.79044
39526	0.83652
39527	0.74627
39528	0.76366
39529	0.79067
39530	1.3265
39531	1.1721
39532	1.2343
39533	1.2146
39534	1.2994
39535	1.0889
39536	1.1144
39537	1.0482
39538	1.1658
39539	1.0491
39540	0.96966
39541	1.0098
39542	0.82772
39543	0.86183
39544	0.89832
39545	1.0517
39546	0.94229
39547	0.90297
39548	1.1525
39549	1.0688
39550	1.085
39551	1.0088
39552	0.98397
39553	0.86387
39554	1.1287
39555	1.148
39556	1.2392
39557	1.2161
39558	1.1982
39559	1.2185
39560	1.2725
39561	2.3055
39562	1.906
39563	1.7266
39564	2.3635
39565	2.8308
39566	2.1315
39567	1.8617
39568	1.5025
39569	2.1532
39570	1.5522
39571	2.9275
39572	2.0516
39573	1.7553
39574	1.5617
39575	1.6257
39576	3.0335
39577	2.3925
39578	0.95576
39579	0.77409
39580	1.0016
39581	1.0441
39582	0.96139
39583	0.87285
39584	1.0129
39585	1.0036
39586	0.90109
39587	1.5926
39588	1.4714
39589	1.257
39590	1.2965
39591	1.4708
39592	1.3612
39593	1.3833
39594	1.3132
39595	1.289
39596	1.0658
39597	1.0823
39598	1.0402
39599	1.0699
39600	2.717
39601	1.9198
39602	1.7172
39603	1.2287
39604	1.2052
39605	1.182
39606	1.2716
39607	1.2493
39608	1.1255
39609	0.72145
39610	0.6864
39611	0.83543
39612	0.79968
39613	0.75503
39614	0.85389
39615	0.89305
39616	0.85311
39617	0.83323
39618	0.7959
39619	0.73388
39620	0.60668
39621	0.74373
39622	0.73882
39623	0.66168
39624	0.71284
39625	0.61935
39626	0.55755
39627	0.68276
39628	0.60813
39629	0.70704
39630	0.66969
39631	0.97441
39632	1.542
39633	1.6964
39634	1.7541
39635	1.6429
39636	1.6768
39637	1.5517
39638	1.6815
39639	1.7174
39640	1.6231
39641	1.503
39642	1.8022
39643	2.4656
39644	1.6194
39645	2.6848
39646	2.2466
39647	1.4664
39648	1.5092
39649	1.9578
39650	1.764
39651	2.3265
39652	0.51854
39653	0.57691
39654	0.47808
39655	0.52847
39656	0.45206
39657	0.72109
39658	0.82943
39659	0.70545
39660	0.81438
39661	0.40213
39662	0.34485
39663	1.0093
39664	1.1909
39665	1.2245
39666	1.1386
39667	1.3618
39668	1.3775
39669	0.90915
39670	1.2735
39671	1.0689
39672	0.94001
39673	1.1822
39674	1.1798
39675	1.2326
39676	4.156
39677	4.0736
39678	4.3003
39679	4.7924
39680	4.4439
39681	3.7446
39682	4.0975
39683	4.0672
39684	3.8851
39685	4.8459
39686	5.2497
39687	4.0438
39688	4.5248
39689	4.5447
39690	3.992
39691	4.4745
39692	4.7392
39693	0.39696
39694	0.54082
39695	0.44247
39696	0.46994
39697	0.37108
39698	0.41701
39699	0.52077
39700	0.56769
39701	0.59712
39702	0.50552
39703	0.58044
39704	0.33912
39705	0.27441
39706	0.30225
39707	0.3076
39708	0.41239
39709	0.46057
39710	0.97296
39711	1.0082
39712	0.89583
39713	0.95767
39714	0.80268
39715	1.1809
39716	1.1955
39717	1.0731
39718	1.167
39719	1.2869
39720	0.81684
39721	0.67216
39722	1.2687
39723	1.3254
39724	3.2762
39725	2.9994
39726	4.29
39727	3.9062
39728	2.7218
39729	3.3249
39730	5.4478
39731	4.4526
39732	4.2442
39733	3.0936
39734	2.9303
39735	2.2823
39736	2.1556
39737	2.112
39738	1.6484
39739	2.3329
39740	1.4847
39741	2.2516
39742	1.9872
39743	2.1649
39744	1.7545
39745	2.2712
39746	2.0578
39747	1.8423
39748	2.2011
39749	1.9655
39750	0.8734
39751	1.1599
39752	1.0932
39753	1.2662
39754	1.3484
39755	1.1549
39756	1.3134
39757	0.94732
39758	0.91911
39759	1.1154
39760	3.3879
39761	3.3833
39762	3.6199
39763	3.3072
39764	3.2576
39765	4.0709
39766	4.3265
39767	3.3274
39768	3.3111
39769	3.1669
39770	3.6021
39771	3.1128
39772	3.3628
39773	5.651
39774	6.1246
39775	4.57
39776	6.1627
39777	5.7634
39778	1.3979
39779	1.5106
39780	1.7963
39781	1.751
39782	2.1563
39783	2.3305
39784	2.2616
39785	1.9461
39786	1.5447
39787	1.4271
39788	1.6497
39789	1.5583
39790	1.4287
39791	1.4893
39792	1.6169
39793	1.6473
39794	1.6824
39795	1.5553
39796	1.3202
39797	1.576
39798	1.6124
39799	1.634
39800	1.712
39801	1.7372
39802	1.6859
39803	1.6407
39804	1.4439
39805	1.5439
39806	1.7302
39807	1.6797
39808	1.5531
39809	1.7717
39810	1.5812
39811	0.47947
39812	0.56408
39813	0.56042
39814	0.56228
39815	0.72634
39816	0.68626
39817	0.91851
39818	0.81972
39819	0.90509
39820	0.71512
39821	0.76801
39822	0.87185
39823	0.86744
39824	0.904
39825	0.92098
39826	0.90127
39827	0.8586
39828	0.95153
39829	0.93499
39830	0.94811
39831	0.88012
39832	0.91574
39833	0.39942
39834	0.39703
39835	0.44177
39836	0.39938
39837	0.29903
39838	0.31588
39839	0.25043
39840	0.21136
39841	0.26664
39842	0.26549
39843	0.32169
39844	0.19615
39845	0.39111
39846	0.40317
39847	0.35373
39848	0.47403
39849	0.2679
39850	0.21427
39851	0.34063
39852	0.31462
39853	0.39653
39854	0.39906
39855	0.48727
39856	0.48662
39857	0.36405
39858	0.25916
39859	0.46851
39860	0.2963
39861	0.29087
39862	0.47201
39863	0.51675
39864	0.22459
39865	0.15734
39866	0.21303
39867	0.25037
39868	0.37107
39869	0.4814
39870	0.43025
39871	0.39003
39872	0.34666
39873	0.64821
39874	1.2136
39875	1.1106
39876	1.7752
39877	1.5
39878	2.181
39879	2.4983
39880	1.9336
39881	0.6132
39882	1.1201
39883	0.59488
39884	1.5404
39885	2.0852
39886	2.2215
39887	2.0002
39888	6.5626e-002
39889	0.1457
39890	0.10513
39891	0.11133
39892	5.6882e-002
39893	5.8418e-002
39894	0.10148
39895	9.8386e-002
39896	5.8091e-002
39897	6.9756e-002
39898	5.9565
39899	4.5616
39900	4.3043
39901	5.0435
39902	5.7003
39903	5.323
39904	1.8167
39905	1.3468
39906	1.9953
39907	1.73
39908	2.6864
39909	2.9256
39910	2.3107
39911	1.9749
39912	2.2995
39913	2.723
39914	2.2787
39915	2.4534
39916	1.9059
39917	1.4343
39918	1.0076
39919	1.0903
39920	1.0585
39921	1.1254
39922	1.4447
39923	0.94185
39924	0.84285
39925	0.81532
39926	1.0133
39927	0.96936
39928	0.94701
39929	0.70814
39930	0.76843
39931	0.43522
39932	0.30516
39933	0.32931
39934	0.5246
39935	0.90072
39936	1.0852
39937	1.1368
39938	0.4774
39939	0.31386
39940	0.45342
39941	0.64459
39942	0.35728
39943	0.50082
39944	0.23182
39945	0.56327
39946	0.85807
39947	1.0909
39948	1.0733
39949	1.1082
39950	0.85315
39951	0.78584
39952	1.1844
39953	1.2796
39954	0.39656
39955	0.75224
39956	0.49583
39957	0.81462
39958	0.27454
39959	1.5384
39960	1.9287
39961	2.9685
39962	2.5737
39963	2.3379
39964	1.7792
39965	2.9621
39966	2.5282
39967	2.5157
39968	1.9291
39969	3.5516
39970	3.4138
39971	3.006
39972	1.3146
39973	2.1099
39974	1.5002
39975	1.6823
39976	1.13
39977	2.4389
39978	2.0247
39979	1.4683
39980	2.1749
39981	1.9268
39982	2.4251
39983	2.0249
39984	1.3034
39985	1.0308
39986	2.0802
39987	1.566
39988	1.9553
39989	1.51
39990	1.4726
39991	2.0736
39992	1.7313
39993	1.3848
39994	1.4585
39995	1.4999
39996	2.0289
39997	1.7318
39998	4.7816
39999	1.5737
40000	1.4776
40001	1.5627
40002	4.895
40003	4.44
40004	3.0062
40005	3.4925
40006	3.1789
40007	4.2499
40008	4.6215
40009	2.3304
40010	1.8298
40011	2.9418
40012	0.46255
40013	0.74295
40014	0.53118
40015	0.64511
40016	0.43838
40017	0.52658
40018	0.55615
40019	0.69406
40020	0.79535
40021	0.7825
40022	0.67867
40023	0.47529
40024	0.45301
40025	0.59688
40026	0.73805
40027	0.76363
40028	0.91941
40029	0.62658
40030	0.44025
40031	0.43285
40032	0.54396
40033	0.48078
40034	0.69328
40035	0.80198
40036	0.7854
40037	0.56043
40038	0.58177
40039	0.65133
40040	0.54776
40041	0.51799
40042	1.6356
40043	1.3971
40044	1.4703
40045	1.4511
40046	1.6145
40047	1.8201
40048	1.6438
40049	1.9721
40050	1.6614
40051	1.9564
40052	1.8402
40053	2.1931
40054	2.1839
40055	1.8343
40056	1.0997
40057	1.2163
40058	1.3554
40059	1.109
40060	1.9311
40061	2.0065
40062	1.78
40063	2.114
40064	2.0666
40065	3.05
40066	2.0509
40067	2.0242
40068	1.5586
40069	2.0786
40070	2.3454
40071	2.9344
40072	2.4797
40073	1.3696
40074	3.1983
40075	2.4632
40076	2.0876
40077	1.3946
40078	1.9938
40079	2.5379
40080	0.87242
40081	1.117
40082	1.1167
40083	1.0307
40084	1.1329
40085	0.9977
40086	0.86774
40087	1.0563
40088	1.0113
40089	1.1641
40090	1.0598
40091	4.3212
40092	4.4374
40093	3.6639
40094	3.9912
40095	3.9515
40096	4.4599
40097	4.978
40098	3.555
40099	3.7886
40100	4.3255
40101	4.5335
40102	3.3068
40103	4.1735
40104	2.4857
40105	1.7716
40106	1.7221
40107	1.5012
40108	1.1094
40109	1.4068
40110	1.5728
40111	1.6689
40112	1.6378
40113	1.4955
40114	1.2464
40115	1.3665
40116	1.0844
40117	1.1839
40118	1.5435
40119	1.0231
40120	1.2272
40121	1.0659
40122	1.4414
40123	1.478
40124	1.6298
40125	4.7736
40126	2.844
40127	3.8473
40128	4.7601
40129	4.1542
40130	4.617
40131	1.8922
40132	4.9761
40133	1.6207
40134	2.3296
40135	1.7374
40136	3.3839
40137	3.6634
40138	2.5577
40139	1.9248
40140	4.488
40141	3.5454
40142	0.97472
40143	1.2933
40144	0.96648
40145	0.70734
40146	0.93827
40147	1.113
40148	1.231
40149	1.1262
40150	0.84408
40151	1.0691
40152	1.0888
40153	0.89181
40154	0.57961
40155	1.0865
40156	0.64462
40157	0.65346
40158	0.57654
40159	0.70599
40160	0.92571
40161	0.98511
40162	0.84134
40163	1.0376
40164	1.5569
40165	1.4031
40166	1.5792
40167	1.3901
40168	0.93738
40169	1.1313
40170	1.0356
40171	1.4576
40172	1.266
40173	1.1907
40174	1.2202
40175	0.93943
40176	0.87696
40177	0.89651
40178	1.1637
40179	1.0338
40180	0.79292
40181	0.76633
40182	1.0404
40183	1.1223
40184	1.2964
40185	1.2861
40186	0.82999
40187	0.75227
40188	0.79894
40189	1.7365
40190	1.8149
40191	1.9155
40192	1.8991
40193	1.7383
40194	0.50877
40195	0.51759
40196	0.3442
40197	0.35273
40198	0.3125
40199	0.31448
40200	0.37136
40201	0.36415
40202	0.4456
40203	0.29629
40204	0.29756
40205	0.5958
40206	0.74036
40207	0.72027
40208	0.6443
40209	0.62614
40210	0.49113
40211	0.46338
40212	0.80549
40213	0.74049
40214	0.69958
40215	0.56775
40216	0.48229
40217	0.453
40218	1.1758
40219	1.216
40220	1.0127
40221	1.3561
40222	1.3188
40223	1.2975
40224	1.1983
40225	1.2935
40226	1.1672
40227	1.2112
40228	1.1268
40229	1.3535
40230	1.301
40231	0.1408
40232	7.1995e-002
40233	5.0426e-002
40234	5.0347e-002
40235	9.0424e-002
40236	0.10466
40237	6.8954e-002
40238	6.1492e-002
40239	9.0452e-002
40240	7.588e-002
40241	0.11354
40242	0.18516
40243	1.2489
40244	1.2552
40245	1.717
40246	1.3774
40247	1.5025
40248	1.5073
40249	1.7334
40250	1.4823
40251	1.3482
40252	2.9302
40253	2.8835
40254	2.2408
40255	1.8859
40256	2.8206
40257	1.4
40258	1.7823
40259	1.3923
40260	0.80915
40261	0.77033
40262	1.0577
40263	0.98208
40264	0.86429
40265	1.1283
40266	1.0693
40267	0.95593
40268	1.0819
40269	1.0475
40270	0.89804
40271	0.81267
40272	0.63875
40273	1.0856
40274	0.99002
40275	1.0487
40276	1.0053
40277	0.8359
40278	0.71656
40279	0.99843
40280	1.0255
40281	0.7401
40282	0.79333
40283	0.98719
40284	1.0442
40285	1.0382
40286	1.0267
40287	0.58901
40288	0.71324
40289	0.97784
40290	1.2404
40291	0.64799
40292	0.65069
40293	0.9908
40294	0.88604
40295	1.1659
40296	1.8352
40297	1.8795
40298	1.6394
40299	1.6541
40300	1.7834
40301	1.8413
40302	0.39223
40303	0.41008
40304	0.46669
40305	0.50821
40306	0.44555
40307	0.47541
40308	0.49815
40309	0.50835
40310	0.47525
40311	0.39781
40312	0.40172
40313	0.45741
40314	0.4487
40315	0.19171
40316	0.37107
40317	0.27182
40318	0.17938
40319	0.39681
40320	0.41165
40321	0.48147
40322	0.53978
40323	0.51138
40324	0.56353
40325	0.40581
40326	0.37283
40327	0.35081
40328	0.30766
40329	0.43481
40330	0.41562
40331	0.4323
40332	0.87646
40333	0.95929
40334	0.97382
40335	0.88121
40336	1.0269
40337	1.0716
40338	1.0455
40339	0.94087
40340	0.85922
40341	1.0189
40342	1.0969
40343	1.0744
40344	0.83147
40345	0.85315
40346	0.98079
40347	0.921
40348	1.0562
40349	1.2973
40350	1.2293
40351	1.2047
40352	1.2958
40353	1.3055
40354	1.2931
40355	1.276
40356	1.2657
40357	1.3658
40358	1.3726
40359	1.0146
40360	0.94403
40361	1.124
40362	1.0658
40363	1.1294
40364	1.083
40365	0.98384
40366	1.0259
40367	1.0245
40368	0.92991
40369	1.1576
40370	1.086
40371	0.97756
40372	1.0085
40373	1.1518
40374	1.0813
40375	1.556
40376	1.7691
40377	1.6688
40378	1.788
40379	1.6039
40380	1.7386
40381	0.46667
40382	0.60301
40383	0.5412
40384	0.60425
40385	0.58821
40386	0.52652
40387	0.57649
40388	0.58877
40389	0.52976
40390	0.47655
40391	0.55347
40392	0.488
40393	0.53582
40394	0.47053
40395	0.49265
40396	0.42752
40397	0.41337
40398	2.9658
40399	2.8567
40400	2.2567
40401	2.0783
40402	2.4942
40403	0.73693
40404	0.77705
40405	0.84637
40406	0.92665
40407	0.88881
40408	0.88358
40409	0.79686
40410	0.89837
40411	0.60579
40412	0.86201
40413	0.78049
40414	0.88122
40415	0.79631
40416	0.91603
40417	0.87707
40418	0.83674
40419	0.79552
40420	0.83535
40421	0.79897
40422	0.71177
40423	0.83253
40424	0.7382
40425	0.80861
40426	0.87264
40427	0.81913
40428	0.79785
40429	0.70151
40430	0.49221
40431	0.44111
40432	0.5091
40433	0.49255
40434	0.52404
40435	0.52498
40436	0.45486
40437	0.50461
40438	0.48319
40439	0.56976
40440	0.54809
40441	0.55101
40442	0.49529
40443	0.90762
40444	0.75096
40445	1.0453
40446	1.0108
40447	0.81855
40448	0.66603
40449	0.81245
40450	1.0791
40451	0.94913
40452	0.82186
40453	0.62807
40454	0.72038
40455	0.9397
40456	0.81933
40457	0.51109
40458	0.52417
40459	0.45466
40460	0.57295
40461	0.64168
40462	0.50299
40463	0.52092
40464	0.6294
40465	0.53523
40466	0.66624
40467	0.65001
40468	0.61875
40469	0.50431
40470	0.58467
40471	0.70965
40472	0.66184
40473	0.70761
40474	0.65576
40475	2.1107
40476	1.9017
40477	1.2751
40478	2.4292
40479	1.5362
40480	1.4293
40481	1.2209
40482	1.1944
40483	2.8946
40484	2.1906
40485	1.7867
40486	2.1883
40487	1.8867
40488	1.4673
40489	1.4904
40490	1.9056
40491	2.2688
40492	1.1873
40493	0.35037
40494	0.3813
40495	0.55982
40496	0.76449
40497	1.1811
40498	0.60907
40499	0.8694
40500	0.73193
40501	1.0153
40502	1.0153
40503	1.5888
40504	1.3593
40505	1.1992
40506	1.5519
40507	0.91031
40508	0.95635
40509	0.80626
40510	0.66275
40511	0.81376
40512	0.99989
40513	0.66517
40514	0.97408
40515	0.90433
40516	0.97625
40517	1.0714
40518	0.90985
40519	0.8348
40520	0.6748
40521	0.64408
40522	0.79888
40523	1.4731
40524	0.96328
40525	0.87437
40526	0.8931
40527	0.84295
40528	0.7581
40529	0.7173
40530	0.95034
40531	1.0036
40532	1.5725
40533	1.4979
40534	1.6389
40535	1.7063
40536	1.6025
40537	1.6767
40538	1.5652
40539	1.652
40540	1.5622
40541	1.4765
40542	1.4933
40543	1.7679
40544	1.5975
40545	1.2829
40546	1.3978
40547	1.6446
40548	1.6674
40549	2.2767
40550	1.7637
40551	1.7269
40552	1.4447
40553	2.3205
40554	1.4772
40555	1.8436
40556	2.5105
40557	2.0782
40558	2.1609
40559	1.6778
40560	0.89483
40561	0.75844
40562	0.97275
40563	0.99024
40564	0.88687
40565	1.016
40566	1.0019
40567	0.97444
40568	1.1254
40569	1.0071
40570	0.93829
40571	1.1122
40572	1.2028
40573	1.1102
40574	0.9451
40575	1.2575
40576	1.3021
40577	1.224
40578	1.2518
40579	1.3045
40580	1.5447
40581	1.1236
40582	1.3952
40583	1.164
40584	1.4504
40585	0.83256
40586	0.91151
40587	0.89602
40588	1.152
40589	0.98192
40590	1.1481
40591	1.2613
40592	1.2741
40593	0.92085
40594	0.8608
40595	0.88695
40596	0.96603
40597	1.1073
40598	0.97834
40599	0.87807
40600	1.1436
40601	1.1461
40602	0.92077
40603	0.83164
40604	1.4511
40605	1.2663
40606	1.2261
40607	1.0627
40608	2.4144
40609	1.4618
40610	1.1554
40611	1.3463
40612	2.1551
40613	2.2859
40614	3.0479
40615	0.80665
40616	0.89953
40617	0.94845
40618	3.5779
40619	3.0672
40620	0.49238
40621	0.82899
40622	0.25982
40623	0.42461
40624	0.76643
40625	1.0733
40626	1.3582
40627	1.2314
40628	1.1732
40629	1.4586
40630	1.0525
40631	1.3017
40632	1.1347
40633	1.0083
40634	1.1958
40635	1.5612
40636	1.3769
40637	1.4519
40638	1.376
40639	1.2319
40640	1.1536
40641	1.1084
40642	1.017
40643	0.84906
40644	0.73323
40645	0.84358
40646	0.73213
40647	1.2468
40648	1.2252
40649	1.2615
40650	1.282
40651	1.1955
40652	1.1052
40653	0.68911
40654	1.0892
40655	1.1599
40656	0.98875
40657	0.94612
40658	0.82771
40659	0.73229
40660	0.98865
40661	0.8711
40662	1.0135
40663	0.93039
40664	0.75414
40665	1.1576
40666	1.1817
40667	0.94085
40668	1.3574
40669	1.983
40670	1.8627
40671	2.1922
40672	2.4458
40673	2.1666
40674	1.7214
40675	1.8479
40676	2.2554
40677	2.1284
40678	2.2501
40679	2.4197
40680	2.4414
40681	3.0511
40682	2.7178
40683	2.9894
40684	3.3272
40685	2.7972
40686	2.5975
40687	3.2118
40688	3.2062
40689	3.4292
40690	2.1289
40691	2.4732
40692	2.3922
40693	2.4807
40694	2.9699
40695	11.864
40696	11.525
40697	11.223
40698	11.844
40699	11.305
40700	11.598
40701	11.374
40702	11.608
40703	6.2258
40704	6.1085
40705	6.2152
40706	5.202
40707	5.5542
40708	5.8285
40709	5.2444
40710	5.5104
40711	5.8719
40712	6.1076
40713	6.0845
40714	5.1687
40715	5.3374
40716	12.357
40717	11.739
40718	11.191
40719	11.334
40720	10.479
40721	10.67
40722	10.533
40723	11.18
40724	11.723
40725	6.1225
40726	6.263
40727	6.2545
40728	6.133
40729	6.5015
40730	6.274
40731	6.2433
40732	6.4941
40733	6.4817
40734	5.1136
40735	5.0796
40736	4.7333
40737	4.5282
40738	4.7898
40739	4.7267
40740	7.9021
40741	8.2545
40742	7.9104
40743	7.2193
40744	7.8147
40745	7.3252
40746	6.9129
40747	8.8023
40748	8.8234
40749	9.1429
40750	9.0558
40751	8.0154
40752	7.6338
40753	7.5435
40754	13.197
40755	13.793
40756	14.317
40757	13.587
40758	14.071
40759	12.51
40760	13.781
40761	13.192
40762	14.454
40763	13.961
40764	12.507
40765	12.52
40766	13.586
40767	13.346
40768	3.5605
40769	2.8107
40770	3.1222
40771	4.2951
40772	3.2193
40773	4.4188
40774	2.5753
40775	4.9792
40776	4.3659
40777	3.7166
40778	2.509
40779	2.2456
40780	2.1365
40781	3.1374
40782	2.6978
40783	4.4092
40784	3.8996
40785	2.3736
40786	3.0257
40787	2.5594
40788	3.4442
40789	2.9211
40790	3.2832
40791	2.827
40792	3.2774
40793	2.1775
40794	2.8869
40795	3.0582
40796	2.8273
40797	2.1676
40798	2.4359
40799	2.4278
40800	10.453
40801	11.139
40802	10.918
40803	11.061
40804	10.897
40805	10.591
40806	10.604
40807	10.615
40808	10.384
40809	10.829
40810	10.816
40811	10.659
40812	10.509
40813	10.414
40814	9.2612
40815	10.182
40816	10.704
40817	11.156
40818	9.5597
40819	11.169
40820	11.668
40821	9.144
40822	9.5487
40823	9.8131
40824	9.3547
40825	8.977
40826	9.396
40827	4.4242
40828	4.3101
40829	4.5959
40830	4.0016
40831	4.0428
40832	4.0707
40833	5.103
40834	4.6879
40835	4.8765
40836	5.1206
40837	5.0654
40838	6.0145
40839	5.5947
40840	5.1519
40841	4.8259
40842	4.7942
40843	4.346
40844	5.486
40845	4.8362
40846	4.9536
40847	4.3829
40848	4.4899e-002
40849	3.0336e-002
40850	3.2948e-002
40851	3.7465e-002
40852	4.7227e-002
40853	1.4035e-002
40854	8.0292e-002
40855	3.6185e-002
40856	0.11378
40857	4.113e-002
40858	6.113e-002
40859	5.652
40860	6.1124
40861	6.0306
40862	5.4307
40863	5.6771
40864	5.2664
40865	4.6629
40866	4.4459
40867	5.0602
40868	5.6187
40869	4.8586
40870	4.3938
40871	4.446
40872	4.8869
40873	3.07
40874	3.2042
40875	2.5507
40876	3.5258
40877	3.7613
40878	3.7782
40879	3.2011
40880	2.8705
40881	2.8161
40882	2.651
40883	3.1473
40884	2.0493
40885	1.9694
40886	1.9581
40887	1.7603
40888	2.2671
40889	2.3012
40890	2.2777
40891	1.9986
40892	2.1863
40893	1.7365
40894	1.1719
40895	1.2963
40896	1.4667
40897	1.5278
40898	1.8714
40899	1.2699
40900	2.0254
40901	1.721
40902	1.3921
40903	1.4698
40904	1.3845
40905	1.3465
40906	2.27
40907	2.1831
40908	1.1996
40909	1.2953
40910	2.071
40911	1.5657
40912	2.0711
40913	1.8437
40914	5.6415
40915	5.7738
40916	5.5626
40917	5.1894
40918	5.5408
40919	5.4439
40920	5.2226
40921	5.5997
40922	4.7149
40923	4.8208
40924	5.1825
40925	5.2265
40926	4.9971
40927	4.6665
40928	4.7191
40929	2.6686
40930	2.0121
40931	2.2141
40932	2.1571
40933	1.9001
40934	1.7785
40935	1.9237
40936	2.3927
40937	1.8739
40938	2.5094
40939	3.4918
40940	7.2697
40941	7.3556
40942	6.4024
40943	6.3062
40944	7.367
40945	7.7587
40946	6.6191
40947	6.5365
40948	7.5441
40949	6.7909
40950	7.408
40951	7.8785
40952	7.7632
40953	7.0752
40954	5.6239
40955	5.2489
40956	5.5772
40957	5.9003
40958	5.6872
40959	5.6358
40960	5.7613
40961	5.9468
40962	5.2071
40963	5.3994
40964	5.2131
40965	5.2903
40966	5.5363
40967	4.9762
40968	5.1888
40969	4.6904
40970	4.8001
40971	4.8874
40972	4.7569
40973	5.6267
40974	5.4936
40975	5.8289
40976	5.7316
40977	10.417
40978	10.09
40979	9.8965
40980	9.9284
40981	10.652
40982	9.9067
40983	9.9632
40984	10.232
40985	10.232
40986	10.087
40987	10.413
40988	10.72
40989	9.9472
40990	10.135
40991	10.137
40992	10.326
40993	7.0936
40994	6.8376
40995	7.5713
40996	7.115
40997	7.1237
40998	6.8158
40999	7.7681
41000	6.7421
41001	6.4508
41002	7.1143
41003	7.5835
41004	7.97
41005	7.9673
41006	7.6017
41007	6.7618
41008	7.0512
41009	7.7831
41010	7.7789
41011	7.9721
41012	7.9698
41013	7.7792
41014	7.6107
41015	7.8112
41016	11.776
41017	11.637
41018	11.63
41019	11.831
41020	11.782
41021	11.672
41022	11.678
41023	11.565
41024	11.827
41025	11.775
41026	11.548
41027	11.608
41028	11.769
41029	11.995
41030	7.3778
41031	5.6149
41032	6.3958
41033	6.5784
41034	4.0553
41035	8.6434
41036	9.9075
41037	3.4534
41038	4.3602
41039	7.9833
41040	6.6176
41041	8.9867
41042	2.5811
41043	10.401
41044	11.701
41045	9.6003
41046	9.2118
41047	3.4115
41048	2.577
41049	2.2579
41050	5.6266
41051	5.5581
41052	5.561
41053	5.7523
41054	5.931
41055	5.3398
41056	5.1951
41057	5.1935
41058	5.6032
41059	5.1085
41060	4.7092
41061	4.6945
41062	4.6637
41063	1.7033
41064	1.6897
41065	1.9482
41066	1.8544
41067	1.8287
41068	2.1517
41069	1.739
41070	2.006
41071	2.0431
41072	2.352
41073	2.282
41074	1.5822
41075	1.6293
41076	1.5156
41077	1.496
41078	0.95858
41079	2.257
41080	1.9544
41081	0.70446
41082	2.0161
41083	0.681
41084	0.53583
41085	0.61592
41086	1.6758
41087	2.1681
41088	2.3497
41089	2.343
41090	1.8557
41091	1.2067
41092	1.1368
41093	2.1427
41094	1.9085
41095	1.4569
41096	1.0909
41097	11.863
41098	11.119
41099	11.444
41100	11.857
41101	11.21
41102	11.507
41103	11.591
41104	11.294
41105	11.835
41106	11.364
41107	11.599
41108	10.59
41109	10.452
41110	11.138
41111	10.917
41112	10.897
41113	11.062
41114	10.827
41115	10.815
41116	10.658
41117	10.603
41118	10.615
41119	10.383
41120	11.446
41121	11.256
41122	11.282
41123	11.491
41124	11.397
41125	11.184
41126	11.54
41127	11.448
41128	11.281
41129	11.486
41130	11.488
41131	11.467
41132	2.8672
41133	2.8196
41134	2.8211
41135	3.3086
41136	3.2069
41137	3.1155
41138	3.232
41139	3.3425
41140	3.6336
41141	3.777
41142	3.7399
41143	0.84329
41144	0.81255
41145	0.89849
41146	0.70041
41147	0.67821
41148	0.63208
41149	0.76328
41150	0.71499
41151	0.83389
41152	0.51672
41153	0.71071
41154	0.93949
41155	1.0398
41156	1.3398
41157	0.51312
41158	0.61687
41159	3.2195
41160	2.9773
41161	3.4567
41162	3.4905
41163	3.7979
41164	3.0645
41165	3.474
41166	7.2121
41167	4.1081
41168	4.1953
41169	5.1974
41170	7.2923
41171	4.2068
41172	6.5078
41173	7.208
41174	6.6495
41175	7.096
41176	4.985
41177	5.7548
41178	6.906
41179	5.1418
41180	5.7402
41181	6.9444
41182	7.1144
41183	5.533
41184	6.4763
41185	6.703
41186	4.4187
41187	6.2241
41188	5.6027
41189	6.0037
41190	5.0763
41191	4.5909
41192	5.038
41193	4.7493
41194	3.2818
41195	3.1133
41196	2.7564
41197	2.9681
41198	2.551
41199	3.1374
41200	3.2817
41201	2.8469
41202	3.3166
41203	3.3136
41204	3.1304
41205	3.0118
41206	2.9548
41207	2.477
41208	3.0079
41209	11.363
41210	10.738
41211	11.962
41212	10.708
41213	11.235
41214	11.124
41215	11.823
41216	12.751
41217	11.088
41218	12.683
41219	11.808
41220	11.446
41221	11.442
41222	12.75
41223	12.753
41224	13.131
41225	12.827
41226	5.4405
41227	5.5649
41228	5.4642
41229	5.6227
41230	5.3062
41231	5.602
41232	5.1974
41233	5.7424
41234	5.6876
41235	5.638
41236	5.2723
41237	4.1813
41238	0.88669
41239	1.1909
41240	0.68272
41241	0.88621
41242	0.70197
41243	0.70823
41244	1.0051
41245	1.5388
41246	2.145
41247	2.0647
41248	2.1508
41249	1.3702
41250	1.9438
41251	1.5543
41252	1.6137
41253	1.9832
41254	1.4158
41255	1.38
41256	1.2663
41257	0.87652
41258	0.96276
41259	1.6341
41260	1.6079
41261	1.539
41262	1.4406
41263	1.6094
41264	1.946
41265	1.8976
41266	1.2694
41267	0.86989
41268	1.1479
41269	1.2643
41270	1.304
41271	1.5542
41272	0.96857
41273	5.5264
41274	2.9124
41275	7.7391
41276	8.0635
41277	6.6016
41278	5.7885
41279	4.5381
41280	4.8763
41281	3.6159
41282	5.9865
41283	4.5379
41284	4.0283
41285	4.5633
41286	6.1697
41287	3.6747
41288	3.1373
41289	8.1832
41290	4.1754
41291	4.7506
41292	1.1964
41293	1.3147
41294	1.1377
41295	1.9406
41296	1.9259
41297	1.0256
41298	1.5664
41299	1.6662
41300	1.7737
41301	1.8647
41302	4.6207
41303	4.7321
41304	4.3414
41305	4.3095
41306	5.0378
41307	5.0697
41308	4.8647
41309	4.3987
41310	4.5308
41311	5.18
41312	3.9095
41313	5.3482
41314	4.4072
41315	4.543
41316	3.7018
41317	5.4532
41318	5.2506
41319	3.84
41320	5.3528
41321	5.5805
41322	3.8494
41323	1.5845
41324	1.8315
41325	2.1967
41326	2.1791
41327	2.0756
41328	1.9447
41329	1.9502
41330	1.8242
41331	1.3475
41332	1.4918
41333	1.9906
41334	1.806
41335	1.7907
41336	1.3
41337	1.4926
41338	1.872
41339	1.7011
41340	2.0566
41341	1.5564
41342	1.3303
41343	1.4021
41344	1.537
41345	1.6521
41346	2.0596
41347	2.1724
41348	1.9523
41349	2.9021
41350	1.5437
41351	3.3838
41352	2.2048
41353	2.5577
41354	2.8947
41355	2.9835
41356	1.6237
41357	1.8694
41358	1.678
41359	2.0633
41360	2.0509
41361	1.2604
41362	1.6004
41363	1.6647
41364	2.0919
41365	2.1139
41366	1.9129
41367	1.7678
41368	1.7168
41369	1.706
41370	1.3498
41371	1.2556
41372	1.5286
41373	1.6418
41374	1.394
41375	1.5085
41376	1.8445
41377	1.9621
41378	1.5809
41379	1.4397
41380	2.2881
41381	2.2702
41382	2.6424
41383	0.87022
41384	2.4379
41385	1.3062
41386	2.4123
41387	2.0159
41388	0.90045
41389	1.2001
41390	1.8078
41391	1.6215
41392	1.1879
41393	1.8813
41394	1.7509
41395	0.97238
41396	1.2169
41397	0.66478
41398	0.39408
41399	0.69746
41400	0.57083
41401	0.46682
41402	0.36154
41403	0.63458
41404	0.47982
41405	0.50736
41406	0.27529
41407	0.34253
41408	0.81442
41409	0.58495
41410	0.71533
41411	0.60997
41412	0.6851
41413	0.74042
41414	0.70008
41415	0.71002
41416	0.9209
41417	0.89871
41418	0.52357
41419	0.59081
41420	0.53951
41421	2.2762
41422	1.0583
41423	2.2319
41424	2.087
41425	1.5638
41426	2.4163
41427	0.92038
41428	1.1106
41429	1.2512
41430	1.728
41431	1.7033
41432	1.9473
41433	1.9014
41434	1.0972
41435	0.81421
41436	2.1116
41437	1.8537
41438	1.7226
41439	1.8523
41440	1.7253
41441	1.9156
41442	1.9276
41443	1.7157
41444	0.73113
41445	0.50101
41446	0.52474
41447	6.7868
41448	7.5318
41449	6.7166
41450	7.5428
41451	7.5547
41452	7.5561
41453	7.8639
41454	7.949
41455	8.1402
41456	7.9374
41457	8.2067
41458	7.8724
41459	8.2166
41460	7.884
41461	2.4875
41462	1.8102
41463	1.7574
41464	2.1162
41465	1.403
41466	1.9223
41467	1.7523
41468	2.112
41469	1.8637
41470	2.4481
41471	0.9134
41472	1.2093
41473	2.0182
41474	2.7172
41475	2.1632
41476	6.0336
41477	5.3304
41478	4.0916
41479	3.6341
41480	3.1731
41481	3.658
41482	4.8995
41483	5.012
41484	5.8012
41485	6.8432
41486	4.2812
41487	4.6847
41488	4.3147
41489	4.3909
41490	3.5157
41491	4.0981
41492	4.5265
41493	4.2349
41494	4.7327
41495	3.9905
41496	4.5246
41497	4.5974
41498	4.5573
41499	4.3289
41500	3.909
41501	3.9683
41502	4.244
41503	4.2962
41504	3.9159
41505	3.8921
41506	4.8304
41507	4.5608
41508	3.9583
41509	3.9906
41510	4.2881
41511	4.4366
41512	4.7714
41513	4.5915
41514	4.2878
41515	4.3141
41516	1.7009
41517	3.0677
41518	3.2906
41519	2.1412
41520	1.9073
41521	2.2794
41522	2.4911
41523	3.0996
41524	2.8973
41525	2.5826
41526	2.3715
41527	2.9487
41528	3.126
41529	2.3436
41530	2.1708
41531	2.8328
41532	2.3069
41533	2.4522
41534	2.7287
41535	2.3754
41536	2.6264
41537	2.2582
41538	3.1358
41539	3.5139
41540	2.7817
41541	2.2798
41542	3.3901
41543	3.5095
41544	2.7272
41545	3.2356
41546	3.8772
41547	2.6273
41548	1.3187
41549	2.6085
41550	2.4174
41551	2.5224
41552	1.5912
41553	2.1258
41554	2.7401
41555	2.258
41556	1.9609
41557	1.4741
41558	2.292
41559	1.6494
41560	2.0233
41561	2.1023
41562	2.2352
41563	2.7411
41564	3.1659
41565	2.6753
41566	3.413
41567	1.871
41568	2.0332
41569	2.2475
41570	2.4993
41571	2.468
41572	2.3254
41573	3.8028
41574	2.5092
41575	3.8366
41576	3.3405
41577	2.8084
41578	3.9601
41579	4.571
41580	1.7521
41581	3.3502
41582	3.0894
41583	2.2501
41584	1.7953
41585	3.7335
41586	3.2417
41587	3.1318
41588	4.1455
41589	4.6616
41590	3.8612
41591	3.6583
41592	4.9704
41593	3.9269
41594	3.2287
41595	2.7534
41596	3.2951
41597	2.4822
41598	3.5349
41599	3.675
41600	2.9685
41601	4.4133
41602	4.1271
41603	3.912
41604	2.7643
41605	2.331
41606	2.2826
41607	3.0839
41608	2.7166
41609	2.4592
41610	3.1741
41611	2.6482
41612	2.7238
41613	2.8259
41614	3.4545
41615	2.8734
41616	3.4674
41617	3.2672
41618	3.7902
41619	3.8935
41620	2.5146
41621	3.4635
41622	2.6547
41623	2.3997
41624	2.5462
41625	2.2343
41626	2.4272
41627	3.2815
41628	3.221
41629	2.1576
41630	2.3892
41631	2.7019
41632	2.914
41633	2.6525
41634	3.3591
41635	3.127
41636	2.0452
41637	2.9628
41638	2.6751
41639	2.3177
41640	3.4179
41641	3.1398
41642	3.4919
41643	2.3322
41644	1.9464
41645	2.0434
41646	2.205
41647	2.2167
41648	2.8835
41649	2.0662
41650	2.291
41651	2.7359
41652	3.035
41653	4.1143
41654	4.0505
41655	3.7228
41656	3.7866
41657	4.5608
41658	5.7149
41659	4.0354
41660	5.0944
41661	4.3769
41662	4.0425
41663	5.2337
41664	4.5675
41665	4.4805
41666	5.2341
41667	0.73619
41668	0.83945
41669	0.79377
41670	0.78585
41671	0.76552
41672	0.7365
41673	0.84096
41674	0.76206
41675	0.81548
41676	0.85825
41677	0.81111
41678	0.83819
41679	0.80798
41680	0.89211
41681	0.86286
41682	0.86412
41683	0.95538
41684	0.88851
41685	1.1835
41686	1.1768
41687	1.079
41688	0.72511
41689	0.68885
41690	1.1489
41691	0.88211
41692	1.052
41693	0.96406
41694	0.98097
41695	1.141
41696	1.2101
41697	0.10059
41698	0.13459
41699	0.1063
41700	7.2091e-002
41701	0.16279
41702	0.13787
41703	0.1345
41704	0.23301
41705	0.22435
41706	0.19985
41707	0.15624
41708	0.13761
41709	0.17455
41710	0.19238
41711	0.18869
41712	0.12784
41713	5.8887e-002
41714	9.0506e-002
41715	6.1794e-002
41716	0.10698
41717	8.612e-002
41718	8.0142e-002
41719	2.2223
41720	2.3912
41721	2.4757
41722	1.8527
41723	1.0587
41724	1.6376
41725	0.74189
41726	2.8119
41727	1.7383
41728	1.8077
41729	1.0765
41730	1.2162
41731	2.3613
41732	2.4144
41733	2.2313
41734	2.8036
41735	2.9567
41736	2.7729
41737	2.9206
41738	2.9183
41739	2.8844
41740	2.1782
41741	2.8819
41742	2.1911
41743	2.248
41744	1.2512
41745	2.7436
41746	2.1158
41747	1.8613
41748	1.8322
41749	2.1649
41750	5.1061
41751	5.3416
41752	4.9064
41753	4.2777
41754	4.6663
41755	4.6855
41756	4.0643
41757	4.4367
41758	4.682
41759	5.326
41760	5.5219
41761	4.631
41762	4.2089
41763	5.0286
41764	5.0523
41765	4.5828
41766	4.2951
41767	3.9267
41768	3.9241
41769	4.3072
41770	4.2306
41771	4.326
41772	4.3835
41773	4.3399
41774	4.2002
41775	3.9676
41776	5.5509
41777	4.9251
41778	5.3048
41779	5.1308
41780	4.3684
41781	5.813
41782	5.413
41783	4.3695
41784	5.1201
41785	4.9201
41786	5.9096
41787	5.511
41788	5.1722
41789	5.2041
41790	4.6955
41791	4.3853
41792	4.3909
41793	4.476
41794	4.7318
41795	0.93961
41796	0.7867
41797	0.80505
41798	0.82309
41799	0.89096
41800	0.86284
41801	0.98922
41802	0.80309
41803	0.79006
41804	0.87607
41805	0.81236
41806	0.89291
41807	0.77651
41808	0.81282
41809	1.415
41810	0.44075
41811	0.84082
41812	0.6428
41813	1.7034
41814	2.6806
41815	0.58748
41816	1.7971
41817	1.1845
41818	1.2378
41819	2.1619
41820	1.919
41821	2.07
41822	1.9726
41823	1.6943
41824	2.2304
41825	1.8558
41826	2.8632
41827	2.5801
41828	1.9436
41829	1.4021
41830	1.3708
41831	0.90116
41832	0.86769
41833	0.59766
41834	0.71798
41835	0.6523
41836	0.53095
41837	0.60121
41838	0.6648
41839	0.71147
41840	0.72375
41841	0.75603
41842	0.40255
41843	0.40505
41844	0.65722
41845	0.71292
41846	0.56308
41847	0.49988
41848	0.39966
41849	0.3131
41850	0.51178
41851	0.43879
41852	0.54442
41853	0.35272
41854	2.727
41855	1.9766
41856	2.8382
41857	2.1373
41858	2.0822
41859	1.8934
41860	3.5592
41861	2.8404
41862	3.9228
41863	2.6852
41864	3.5502
41865	1.9449
41866	2.0825
41867	3.0028
41868	2.1582
41869	1.1859
41870	1.0732
41871	1.4042
41872	1.3708
41873	2.2904
41874	1.1143
41875	1.5572
41876	2.6063
41877	2.9197
41878	2.6295
41879	2.6094
41880	2.0492
41881	1.9795
41882	1.2661
41883	2.5102
41884	2.317
41885	1.4163
41886	1.9622
41887	2.7451
41888	2.4337
41889	1.2937
41890	1.807
41891	1.6766
41892	1.4088
41893	1.4812
41894	1.4383
41895	1.1052
41896	1.2579
41897	1.286
41898	1.2086
41899	1.5828
41900	1.6073
41901	1.3018
41902	1.4508
41903	1.4053
41904	1.2978
41905	1.0085
41906	1.2533
41907	0.98198
41908	1.1423
41909	0.89134
41910	0.93703
41911	0.93414
41912	1.2222
41913	0.98721
41914	0.97288
41915	1.2745
41916	1.2328
41917	0.95433
41918	0.8129
41919	0.9836
41920	1.0626
41921	1.0474
41922	1.1456
41923	2.4357
41924	1.5179
41925	2.4338
41926	1.5071
41927	1.3398
41928	2.3326
41929	1.8943
41930	2.4275
41931	2.4494
41932	2.2462
41933	2.0621
41934	2.68
41935	2.656
41936	1.4439
41937	3.2912
41938	2.3159
41939	1.6347
41940	1.7267
41941	2.5425
41942	3.1594
41943	3.2354
41944	3.2516
41945	4.2272
41946	4.1033
41947	4.4329
41948	5.1475
41949	4.2759
41950	5.2485
41951	3.667
41952	5.1606
41953	3.8221
41954	4.508
41955	5.0704
41956	5.0154
41957	5.3917
41958	5.0842
41959	5.7562
41960	5.1159
41961	5.0235
41962	5.0342
41963	4.8041
41964	3.6247
41965	4.6432
41966	4.2606
41967	3.5042
41968	3.1702
41969	3.6822
41970	3.9036
41971	3.6732
41972	4.504
41973	3.7103
41974	3.8372
41975	5.2612
41976	6.0573
41977	4.681
41978	4.03
41979	4.8235
41980	4.4173
41981	5.2901
41982	4.84
41983	5.1299
41984	6.0169
41985	5.6623
41986	5.793
41987	4.6242
41988	3.7855
41989	3.6137
41990	6.4818
41991	7.6743
41992	4.0546
41993	3.8561
41994	5.9766
41995	10.22
41996	4.258
41997	4.5923
41998	4.0816
41999	3.6778
42000	3.6937
42001	3.7219
42002	3.3829
42003	2.616
42004	2.7493
42005	3.1344
42006	3.237
42007	4.1165
42008	3.5227
42009	1.7754
42010	2.2025
42011	2.6368
42012	2.9651
42013	2.8054
42014	3.01
42015	3.1693
42016	2.8969
42017	2.3052
42018	2.4359
42019	2.0215
42020	1.8827
42021	2.8044
42022	2.6115
42023	3.6981
42024	4.615
42025	4.0581
42026	3.8124
42027	4.8223
42028	5.1023
42029	4.6816
42030	4.7049
42031	2.5969
42032	3.1179
42033	2.5991
42034	1.6842
42035	2.9117
42036	2.7459
42037	2.2343
42038	3.0213
42039	2.9021
42040	2.2609
42041	2.8281
42042	2.201
42043	2.312
42044	3.1029
42045	2.4599
42046	1.9563
42047	1.984
42048	2.301
42049	2.4562
42050	1.6953
42051	1.4668
42052	2.5332
42053	1.6464
42054	0.65088
42055	2.6404
42056	2.1171
42057	1.9745
42058	1.7488
42059	0.79589
42060	0.8956
42061	0.63141
42062	1.1787
42063	1.0207
42064	0.8701
42065	0.95428
42066	0.778
42067	0.8474
42068	0.64931
42069	0.67034
42070	0.63005
42071	0.66524
42072	0.67139
42073	0.68823
42074	1.1418
42075	0.54628
42076	0.51699
42077	0.43786
42078	0.51191
42079	0.46147
42080	0.50142
42081	0.82499
42082	0.89909
42083	0.46695
42084	0.53622
42085	4.109
42086	4.0423
42087	3.7517
42088	3.7555
42089	4.5416
42090	5.7884
42091	4.0585
42092	5.1787
42093	4.4509
42094	5.2177
42095	4.4659
42096	4.0064
42097	1.4371
42098	0.7608
42099	0.80929
42100	1.3944
42101	1.4274
42102	0.62743
42103	0.94512
42104	0.80254
42105	0.8915
42106	0.78765
42107	0.75587
42108	0.81295
42109	0.86065
42110	0.92114
42111	0.86856
42112	0.78626
42113	0.75097
42114	0.76243
42115	0.78132
42116	0.76133
42117	0.71758
42118	0.77386
42119	0.82733
42120	2.5797
42121	2.0677
42122	2.6691
42123	2.5597
42124	2.4425
42125	2.1832
42126	1.751
42127	1.3742
42128	2.5129
42129	1.8831
42130	1.2312
42131	1.9479
42132	2.0329
42133	1.8409
42134	1.3104
42135	1.9007
42136	5.4695
42137	6.7909
42138	7.1651
42139	4.0477
42140	8.7951
42141	7.5818
42142	3.646
42143	10.761
42144	9.2792
42145	6.5691
42146	5.5118
42147	8.4181
42148	10.034
42149	10.943
42150	8.8449
42151	11.261
42152	2.7811
42153	2.1571
42154	2.009
42155	2.197
42156	2.183
42157	1.7003
42158	2.2099
42159	2.6424
42160	2.9223
42161	2.3584
42162	1.9361
42163	1.8282
42164	2.1747
42165	3.0191
42166	2.9269
42167	1.8937
42168	2.8801
42169	2.8499
42170	2.1644
42171	1.2299
42172	2.2091
42173	1.5823
42174	1.0609
42175	1.7299
42176	1.3469
42177	1.593
42178	2.0057
42179	1.9159
42180	0.6871
42181	0.90593
42182	3.6803
42183	2.3664
42184	2.2536
42185	2.356
42186	4.1229
42187	4.1384
42188	3.6756
42189	3.4709
42190	2.8783
42191	2.1131
42192	2.5458
42193	3.3082
42194	3.5288
42195	3.0361
42196	2.7457
42197	1.9429
42198	2.3666
42199	2.7695
42200	2.2528
42201	2.6597
42202	2.2521
42203	2.6666
42204	2.2302
42205	3.0185
42206	2.7389
42207	3.6129
42208	2.6802
42209	2.7486
42210	3.0484
42211	3.376
42212	2.412
42213	3.5251
42214	3.0999
42215	3.2629
42216	3.3571
42217	2.5856
42218	2.3226
42219	2.4996
42220	2.5204
42221	1.926
42222	2.0722
42223	2.1025
42224	1.76
42225	2.0395
42226	1.9742
42227	1.9146
42228	1.5129
42229	1.5773
42230	1.5749
42231	1.5898
42232	1.1439
42233	1.7913
42234	1.0283
42235	1.7635
42236	1.6048
42237	0.94516
42238	0.90736
42239	0.96607
42240	1.605
42241	0.83814
42242	0.80679
42243	0.88966
42244	1.5424
42245	1.4656
42246	1.3444
42247	1.2834
42248	1.1379
42249	0.91377
42250	1.0955
42251	2.7836
42252	3.9931
42253	3.1025
42254	2.3103
42255	2.1619
42256	2.8542
42257	2.4992
42258	3.5618
42259	3.0093
42260	2.3277
42261	2.2536
42262	3.0338
42263	2.6375
42264	4.4295
42265	5.2795
42266	4.9986
42267	4.4255
42268	5.2148
42269	6.8285
42270	9.3298
42271	8.3838
42272	4.8874
42273	4.0776
42274	10.587
42275	6.9413
42276	9.1603
42277	8.3687
42278	6.4629
42279	9.2894
42280	10.57
42281	12.537
42282	10.498
42283	9.6287
42284	12.767
42285	12.443
42286	11.617
42287	12.205
42288	1.7845
42289	1.5806
42290	1.4879
42291	1.6691
42292	1.8708
42293	1.9667
42294	1.7145
42295	2.1048
42296	1.6376
42297	2.1604
42298	1.1924
42299	1.0052
42300	1.282
42301	1.2841
42302	1.1598
42303	1.0587
42304	1.2039
42305	1.2661
42306	1.5803
42307	4.1602
42308	5.398
42309	3.815
42310	3.9933
42311	2.8856
42312	4.3659
42313	4.0672
42314	1.2889
42315	1.6144
42316	0.93522
42317	2.0832
42318	1.655
42319	2.5261
42320	2.3334
42321	1.2823
42322	1.045
42323	2.4017
42324	2.0434
42325	2.7378
42326	2.2684
42327	0.6413
42328	0.77691
42329	0.82317
42330	0.52831
42331	0.722
42332	0.78501
42333	0.82199
42334	0.72591
42335	0.55048
42336	0.39345
42337	0.42154
42338	0.69678
42339	0.75339
42340	0.68345
42341	0.68716
42342	0.62179
42343	0.4185
42344	0.46953
42345	0.64909
42346	0.58908
42347	0.58902
42348	0.55298
42349	0.63879
42350	0.62052
42351	0.75155
42352	0.63053
42353	0.3536
42354	0.66534
42355	0.56925
42356	0.54862
42357	0.53624
42358	0.56868
42359	0.62471
42360	0.70445
42361	0.46901
42362	0.42439
42363	1.7501
42364	3.0123
42365	2.8728
42366	2.2028
42367	1.225
42368	1.0376
42369	2.1366
42370	1.6847
42371	0.86253
42372	0.8936
42373	0.12136
42374	0.35051
42375	0.27147
42376	4.443e-002
42377	9.9826e-002
42378	0.36143
42379	6.6434e-002
42380	0.29562
42381	0.21845
42382	3.3887e-002
42383	9.5311e-002
42384	0.11518
42385	0.35974
42386	0.21117
42387	0.21456
42388	9.2173e-002
42389	0.10597
42390	0.20372
42391	5.7771e-002
42392	0.11054
42393	0.12385
42394	3.8188e-002
42395	2.6342e-002
42396	4.079e-002
42397	2.4781
42398	2.9369
42399	3.5298
42400	3.6952
42401	3.4937
42402	2.9984
42403	3.2295
42404	2.8902
42405	3.4086
42406	3.0895
42407	3.5487
42408	3.5502
42409	3.2
42410	3.145
42411	2.8148
42412	3.296
42413	3.0687
42414	1.4103
42415	1.4371
42416	1.6617
42417	1.1593
42418	1.7387
42419	1.234
42420	1.196
42421	1.2484
42422	1.6826
42423	0.91141
42424	1.0608
42425	0.82185
42426	0.80991
42427	1.1284
42428	1.0179
42429	1.05
42430	1.
42431	0.72036
42432	0.7086
42433	0.72417
42434	0.62447
42435	1.1697
42436	1.1435
42437	1.7365
42438	2.6644
42439	2.1677
42440	2.0249
42441	1.5079
42442	2.5054
42443	2.0499
42444	2.6072
42445	1.3682
42446	1.3998
42447	2.9187
42448	1.7451
42449	1.8621
42450	2.5296
42451	2.0729
42452	2.886
42453	2.6907
42454	3.1111
42455	2.826
42456	2.2204
42457	2.6693
42458	2.2659
42459	6.4047
42460	6.8657
42461	5.5568
42462	6.2757
42463	6.0419
42464	5.8487
42465	5.9448
42466	5.8628
42467	5.4727
42468	5.2239
42469	5.0361
42470	6.0814
42471	7.1905
42472	5.8401
42473	5.8175
42474	5.5714
42475	5.5059
42476	5.4604
42477	6.6441
42478	6.378
42479	5.8304
42480	2.0763
42481	2.1557
42482	2.5862
42483	2.1709
42484	2.1724
42485	5.3015
42486	4.1659
42487	4.265
42488	3.1063
42489	2.8535
42490	2.5113
42491	4.3711
42492	3.4626
42493	3.6938
42494	4.4951
42495	4.5383
42496	3.5033
42497	2.9225
42498	3.3566
42499	8.8562
42500	10.792
42501	9.5918
42502	8.9116
42503	8.6009
42504	8.9366
42505	7.91
42506	8.4199
42507	6.8714
42508	6.8497
42509	6.9393
42510	7.0332
42511	8.8687
42512	9.5407
42513	7.8212
42514	8.3888
42515	6.0521
42516	6.2533
42517	7.9336
42518	7.8123
42519	2.2877
42520	2.5893
42521	2.7068
42522	3.0168
42523	3.0992
42524	1.6424
42525	2.6647
42526	2.0282
42527	3.1045
42528	2.5658
42529	2.1198
42530	2.4225
42531	2.9419
42532	2.7789
42533	2.9849
42534	2.7239
42535	2.7002
42536	1.7961
42537	1.3611
42538	2.2663
42539	2.6147
42540	2.8785
42541	2.3686
42542	2.6627
42543	1.6954
42544	1.3334
42545	2.6012
42546	2.3796
42547	2.2602
42548	1.703
42549	2.141
42550	0.39269
42551	0.35395
42552	0.4036
42553	0.36813
42554	0.41107
42555	0.31139
42556	0.26462
42557	4.3014
42558	4.7446
42559	4.0265
42560	4.2603
42561	4.9575
42562	4.7452
42563	4.7261
42564	4.3025
42565	4.0485
42566	4.2474
42567	4.0256
42568	4.0485
42569	4.7043
42570	4.516
42571	5.0645
42572	5.0644
42573	4.7056
42574	4.5186
42575	4.1265
42576	4.1316
42577	4.5699
42578	4.3765
42579	4.3634
42580	4.5685
42581	4.972
42582	4.2385
42583	3.8712
42584	4.5948
42585	4.5959
42586	4.239
42587	3.8669
42588	0.12014
42589	0.17361
42590	0.17153
42591	0.25537
42592	8.8643e-002
42593	0.21443
42594	0.22575
42595	2.7689
42596	2.5883
42597	2.8291
42598	2.0951
42599	2.2823
42600	3.3641
42601	2.8655
42602	3.2894
42603	2.6833
42604	2.178
42605	2.4234
42606	6.9197
42607	6.538
42608	6.3126
42609	7.0413
42610	6.8572
42611	6.9695
42612	6.3314
42613	6.5206
42614	6.544
42615	6.3206
42616	6.1145
42617	6.1544
42618	6.3366
42619	1.7647
42620	2.1881
42621	2.7321
42622	2.3748
42623	2.3039
42624	2.4342
42625	2.3025
42626	2.2841
42627	1.8838
42628	2.5029
42629	2.0252
42630	2.9262
42631	2.9744
42632	2.9006
42633	2.9187
42634	3.0122
42635	3.2791
42636	3.2738
42637	3.1665
42638	3.4098
42639	3.8921
42640	2.9104
42641	2.8858
42642	2.7788
42643	3.7915
42644	3.6263
42645	3.8564
42646	4.2826
42647	4.133
42648	3.74
42649	3.1046
42650	2.9891
42651	3.6208
42652	4.2656
42653	4.1862
42654	2.4496
42655	2.5574
42656	1.892
42657	2.2566
42658	2.4357
42659	1.9309
42660	1.7081
42661	2.532
42662	2.1501
42663	1.8704
42664	2.6142
42665	0.73379
42666	0.4693
42667	0.55891
42668	0.58712
42669	0.95543
42670	0.85555
42671	1.0148
42672	0.91146
42673	0.98933
42674	0.93073
42675	0.5413
42676	0.50179
42677	0.51517
42678	0.56525
42679	0.5976
42680	0.59151
42681	0.44486
42682	0.5274
42683	0.63498
42684	0.66999
42685	0.62584
42686	0.69208
42687	0.71419
42688	0.57357
42689	0.63322
42690	0.58657
42691	0.51305
42692	0.43981
42693	0.52078
42694	0.48354
42695	0.63099
42696	0.56479
42697	0.48971
42698	0.44992
42699	0.61204
42700	0.59273
42701	1.3569
42702	1.337
42703	2.084
42704	2.4263
42705	1.0074
42706	1.5693
42707	1.7445
42708	1.8156
42709	1.1613
42710	1.5495
42711	1.0907
42712	1.5152
42713	2.4973
42714	0.44037
42715	0.42869
42716	0.69155
42717	0.72578
42718	0.7103
42719	0.67798
42720	0.55002
42721	0.49346
42722	0.32775
42723	0.60768
42724	0.48851
42725	0.59886
42726	0.55113
42727	0.3151
42728	0.24255
42729	0.31495
42730	0.25683
42731	0.25011
42732	9.9238e-002
42733	6.9049e-002
42734	0.35382
42735	0.34566
42736	0.13255
42737	0.11981
42738	0.13539
42739	0.2767
42740	0.26153
42741	4.3171
42742	4.0325
42743	4.2273
42744	4.3162
42745	4.7584
42746	4.7568
42747	4.0299
42748	5.4909
42749	5.4812
42750	5.7115
42751	5.6587
42752	5.7238
42753	5.7557
42754	5.6783
42755	5.1164
42756	5.2609
42757	5.3352
42758	5.607
42759	4.9344
42760	5.8435
42761	5.629
42762	4.8871
42763	4.0007
42764	5.2043
42765	4.1535
42766	3.8136
42767	4.0251
42768	3.4968
42769	3.2091
42770	3.003
42771	3.6107
42772	3.3638
42773	4.4686
42774	4.5483
42775	3.0692
42776	2.6425
42777	3.2407
42778	4.4415
42779	3.7498
42780	4.3191
42781	2.5464
42782	2.9148
42783	2.9313
42784	2.5537
42785	2.5203
42786	5.7997
42787	6.1195
42788	6.0797
42789	6.0807
42790	5.8112
42791	4.7843
42792	6.5849
42793	6.0924
42794	6.1067
42795	5.1661
42796	6.5284
42797	6.0941
42798	6.227
42799	4.8275
42800	5.1141
42801	5.1439
42802	6.4388
42803	7.02
42804	6.9429
42805	6.91
42806	11.872
42807	9.1137
42808	9.6655
42809	7.4981
42810	11.302
42811	10.57
42812	7.9693
42813	9.6247
42814	9.8639
42815	12.192
42816	10.41
42817	8.5209
42818	11.49
42819	11.99
42820	0.70105
42821	0.73907
42822	0.56974
42823	0.56882
42824	0.84537
42825	2.0489
42826	1.9419
42827	2.9194
42828	3.0009
42829	2.8449
42830	2.4758
42831	1.889
42832	2.0982
42833	1.4371
42834	1.3382
42835	1.9182
42836	2.9277
42837	2.4197
42838	1.7331
42839	2.0327
42840	0.9612
42841	2.3372
42842	2.6486
42843	2.3383
42844	2.3391
42845	2.4991
42846	2.001
42847	3.1907
42848	2.8968
42849	2.7921
42850	2.3668
42851	2.5165
42852	2.3817
42853	4.1966
42854	4.1917
42855	4.7247
42856	4.1748
42857	4.4912
42858	4.4154
42859	3.9382
42860	4.0372
42861	3.9817
42862	4.134
42863	4.1496
42864	4.0319
42865	4.0062
42866	4.3479
42867	3.6717
42868	2.4744
42869	2.934
42870	2.9665
42871	3.1178
42872	3.8421
42873	3.085
42874	2.9029
42875	2.9272
42876	3.1326
42877	3.5145
42878	4.4666
42879	5.0971
42880	3.9117
42881	3.1297
42882	2.9456
42883	3.7794
42884	2.6719
42885	3.1683
42886	2.4728
42887	3.2943
42888	3.9028
42889	3.2705
42890	2.9821
42891	1.2711
42892	1.4203
42893	1.3821
42894	1.178
42895	2.0603
42896	2.0018
42897	1.5341
42898	1.9294
42899	1.9331
42900	1.6725
42901	1.1671
42902	1.7493
42903	1.8617
42904	1.5023
42905	1.2358
42906	1.1854
42907	1.5195
42908	1.6821
42909	0.96981
42910	0.79087
42911	0.71747
42912	0.84773
42913	0.93834
42914	1.0412
42915	1.0198
42916	1.0426
42917	0.83411
42918	0.84678
42919	0.97291
42920	1.9533
42921	2.4161
42922	2.6931
42923	2.2468
42924	2.3178
42925	2.5182
42926	2.5254
42927	1.644
42928	1.4453
42929	1.2508
42930	1.2192
42931	1.4976
42932	1.2971
42933	1.1316
42934	1.531
42935	1.3587
42936	3.0105
42937	3.2641
42938	2.9892
42939	2.6329
42940	3.4918
42941	3.2145
42942	2.8092
42943	4.1707
42944	3.7358
42945	4.307
42946	2.9174
42947	3.1543
42948	3.766
42949	3.3105
42950	3.0393
42951	3.7222
42952	3.7847
42953	1.0583
42954	1.0647
42955	1.099
42956	0.77976
42957	0.73922
42958	0.64303
42959	1.3294
42960	0.94952
42961	0.92396
42962	1.0911
42963	1.1914
42964	1.0263
42965	0.99622
42966	1.1656
42967	1.3051
42968	2.1513
42969	2.5089
42970	2.4237
42971	2.7208
42972	2.5347
42973	2.8345
42974	2.6557
42975	2.8176
42976	2.8433
42977	2.9702
42978	4.826
42979	5.1352
42980	5.3559
42981	5.1375
42982	5.3027
42983	5.051
42984	4.7305
42985	5.1499
42986	5.1258
42987	4.5601
42988	4.2841
42989	4.6065
42990	4.1473
42991	3.2842
42992	1.079
42993	1.5698
42994	2.3611
42995	2.1232
42996	1.1335
42997	1.8344
42998	1.8276
42999	0.96704
43000	1.0763
43001	0.73289
43002	0.64143
43003	1.1922
43004	0.69389
43005	1.1072
43006	0.77891
43007	5.6345
43008	6.0144
43009	6.066
43010	5.2867
43011	4.7688
43012	4.9818
43013	5.1879
43014	5.4134
43015	4.75
43016	5.7873
43017	4.9324
43018	4.7242
43019	4.3315
43020	4.0457
43021	3.9952
43022	4.4056
43023	4.352
43024	4.723
43025	5.6987
43026	6.0508
43027	5.5619
43028	5.4576
43029	1.0821
43030	1.0313
43031	0.8631
43032	0.8973
43033	1.4376
43034	1.4943
43035	1.1919
43036	1.4959
43037	2.5602
43038	2.1361
43039	1.1127
43040	2.1444
43041	2.4558
43042	1.6032
43043	1.7377
43044	2.3457
43045	0.49729
43046	0.83027
43047	0.78063
43048	0.80755
43049	1.1387
43050	0.72905
43051	5.1038
43052	5.6388
43053	5.0904
43054	3.8208
43055	5.2945
43056	4.5713
43057	4.4004
43058	4.9889
43059	5.5187
43060	4.6652
43061	3.8118
43062	3.6864
43063	5.0984
43064	4.4342
43065	5.106
43066	5.2908
43067	5.236
43068	5.2136
43069	5.1949
43070	4.1211
43071	4.8049
43072	4.9891
43073	0.98347
43074	1.3001
43075	1.3001
43076	0.84895
43077	0.84507
43078	1.0592
43079	1.0231
43080	1.8442
43081	1.5488
43082	1.5847
43083	2.0522
43084	2.0574
43085	1.8789
43086	1.8702
43087	1.496
43088	1.751
43089	1.4747
43090	1.5069
43091	1.6072
43092	1.9699
43093	1.8153
43094	2.1058
43095	1.9199
43096	1.5968
43097	1.6244
43098	1.8051
43099	2.0197
43100	1.9051
43101	1.7903
43102	1.7149
43103	2.1125
43104	3.8928
43105	3.3856
43106	4.1736
43107	3.4176
43108	2.1303
43109	1.7572
43110	3.1177
43111	3.2105
43112	4.4659
43113	2.3368
43114	4.0469
43115	3.6547
43116	3.1411
43117	1.5537
43118	1.7867
43119	2.8959
43120	2.052
43121	1.6318
43122	5.036
43123	6.1617
43124	6.5983
43125	6.1146
43126	5.1387
43127	4.498
43128	4.8455
43129	4.4612
43130	4.5029
43131	6.1734
43132	6.5208
43133	5.0361
43134	6.6741
43135	5.6244
43136	5.1458
43137	4.2177
43138	4.1453
43139	5.8806
43140	6.2393
43141	4.705
43142	5.612
43143	4.692
43144	5.917
43145	5.746
43146	5.5344
43147	0.36959
43148	11.236
43149	11.152
43150	13.589
43151	15.047
43152	14.371
43153	9.3846
43154	10.751
43155	9.4117
43156	12.896
43157	11.205
43158	11.731
43159	10.371
43160	1.6777
43161	3.0652
43162	1.504
43163	1.2912
43164	3.0534
43165	2.145
43166	2.5664
43167	1.3459
43168	1.3783
43169	1.2035
43170	1.9243
43171	1.9334
43172	1.5487
43173	2.5311
43174	1.9396
43175	2.2618
43176	2.5174
43177	2.588
43178	2.0642
43179	1.2535
43180	1.8589
43181	2.3009
43182	3.0505
43183	2.1961
43184	1.5169
43185	2.0308
43186	1.5006
43187	1.1274
43188	1.0865
43189	0.80798
43190	3.0597
43191	2.452
43192	0.79533
43193	1.0106
43194	1.2131
43195	1.0083
43196	1.1294
43197	0.841
43198	1.9648
43199	2.3149
43200	0.82083
43201	1.8978
43202	3.0445
43203	2.4361
43204	2.1432
43205	3.0591
43206	3.5606
43207	3.0036
43208	2.9072
43209	2.3279
43210	2.9772
43211	1.7851
43212	1.5362
43213	1.862
43214	3.2917
43215	3.536
43216	2.6687
43217	2.7996
43218	8.8662
43219	8.9168
43220	10.782
43221	9.5928
43222	8.6043
43223	8.9115
43224	6.887
43225	6.9096
43226	8.0467
43227	7.6067
43228	8.385
43229	8.1895
43230	8.53
43231	7.7746
43232	8.0151
43233	6.9389
43234	6.9181
43235	6.6548
43236	7.7989
43237	8.8646
43238	9.5146
43239	7.6386
43240	6.0494
43241	6.144
43242	2.9175
43243	2.8691
43244	3.6415
43245	2.9555
43246	2.4433
43247	2.5021
43248	3.5932
43249	3.3623
43250	3.5058
43251	3.5016
43252	3.3347
43253	2.9008
43254	2.5157
43255	3.3539
43256	0.61966
43257	0.43763
43258	0.46021
43259	0.35642
43260	0.3816
43261	0.26702
43262	0.3331
43263	0.41074
43264	0.20936
43265	0.21603
43266	0.6596
43267	0.78951
43268	0.80744
43269	0.91517
43270	0.92147
43271	0.19753
43272	0.19108
43273	0.28943
43274	0.21471
43275	0.37887
43276	0.37069
43277	0.25154
43278	0.20656
43279	0.2089
43280	0.23741
43281	0.27685
43282	0.29259
43283	0.2584
43284	0.29954
43285	2.4149
43286	2.194
43287	2.0149
43288	2.3275
43289	2.445
43290	1.114
43291	1.0244
43292	1.0316
43293	1.1921
43294	1.1012
43295	1.0958
43296	1.0304
43297	1.2051
43298	1.2062
43299	1.1229
43300	1.1955
43301	1.1231
43302	0.4851
43303	0.49458
43304	0.51821
43305	0.3704
43306	0.60707
43307	0.62447
43308	0.61996
43309	0.53828
43310	0.6521
43311	0.62931
43312	0.55118
43313	0.65172
43314	0.5969
43315	0.52107
43316	0.46297
43317	0.47281
43318	0.4879
43319	0.59936
43320	0.52837
43321	1.5665
43322	1.5392
43323	1.4368
43324	1.9297
43325	1.664
43326	1.5284
43327	1.7752
43328	1.7213
43329	1.9392
43330	1.8451
43331	1.7384
43332	2.2445
43333	1.9467
43334	1.4814
43335	0.98406
43336	1.052
43337	1.0108
43338	1.1212
43339	1.084
43340	1.0228
43341	0.88525
43342	1.0433
43343	0.85537
43344	0.83431
43345	0.92485
43346	2.5906
43347	2.482
43348	2.6429
43349	1.5951
43350	1.7315
43351	1.5365
43352	1.8326
43353	1.6657
43354	1.7631
43355	1.7569
43356	0.75066
43357	0.74287
43358	0.43435
43359	0.49516
43360	0.42043
43361	0.55804
43362	0.42157
43363	0.46669
43364	0.38225
43365	0.43122
43366	0.60003
43367	0.85097
43368	0.86807
43369	0.84214
43370	0.7863
43371	0.86751
43372	0.76427
43373	0.17778
43374	0.28948
43375	0.41736
43376	0.52202
43377	0.68789
43378	0.54738
43379	0.70073
43380	0.64575
43381	0.71101
43382	0.6385
43383	0.54083
43384	0.76349
43385	0.7401
43386	0.68831
43387	0.46408
43388	0.75078
43389	0.65868
43390	0.57726
43391	0.73968
43392	0.67039
43393	0.45579
43394	0.4266
43395	0.56883
43396	0.5067
43397	0.54384
43398	0.92912
43399	0.87401
43400	0.66505
43401	1.0907
43402	0.89627
43403	1.0797
43404	1.5865
43405	1.4363
43406	1.5453
43407	1.4478
43408	1.3486
43409	1.5405
43410	1.6163
43411	1.4938
43412	1.631
43413	1.5556
43414	1.6145
43415	1.5551
43416	1.5032
43417	1.3928
43418	1.5665
43419	1.4886
43420	1.5163
43421	1.293
43422	1.0572
43423	1.4382
43424	1.387
43425	1.4276
43426	1.3756
43427	1.5711
43428	1.4967
43429	1.5978
43430	1.4833
43431	0.86878
43432	0.71562
43433	0.76308
43434	0.54559
43435	0.81433
43436	0.69822
43437	0.78086
43438	0.82295
43439	1.0277
43440	1.0476
43441	0.8573
43442	0.81664
43443	0.91458
43444	0.95922
43445	1.1121
43446	0.79378
43447	0.77867
43448	0.76184
43449	0.95583
43450	0.8664
43451	0.98269
43452	0.8842
43453	1.1542
43454	1.0201
43455	1.1902
43456	1.1391
43457	0.82454
43458	0.97954
43459	0.88951
43460	0.92152
43461	0.91843
43462	0.80992
43463	0.90013
43464	0.97508
43465	1.0427
43466	1.0322
43467	0.7238
43468	1.3533
43469	1.4896
43470	1.8319
43471	1.858
43472	1.7541
43473	1.7285
43474	1.5929
43475	1.7606
43476	0.83832
43477	0.85224
43478	0.96917
43479	0.91466
43480	0.59199
43481	0.76679
43482	0.73891
43483	1.0642
43484	1.138
43485	1.1135
43486	1.0487
43487	1.1561
43488	1.1696
43489	1.086
43490	0.93456
43491	0.75286
43492	0.72858
43493	0.61108
43494	0.68669
43495	0.67227
43496	1.1097
43497	1.08
43498	0.86361
43499	0.68023
43500	0.63054
43501	0.80039
43502	0.77651
43503	0.81939
43504	0.42225
43505	0.41085
43506	0.4288
43507	0.39331
43508	1.9359
43509	1.1682
43510	1.4611
43511	2.0654
43512	1.9546
43513	2.9235
43514	1.7473
43515	3.0791
43516	2.0108
43517	1.7173
43518	3.2575
43519	2.816
43520	3.2094
43521	2.0286
43522	2.4379
43523	3.0455
43524	2.1537
43525	3.0745
43526	2.5368
43527	2.7856
43528	2.623
43529	2.4347
43530	2.1351
43531	2.0279
43532	2.6509
43533	2.7339
43534	2.5393
43535	1.6526
43536	1.6277
43537	1.0473
43538	1.4188
43539	1.2969
43540	0.89451
43541	0.80853
43542	1.0366
43543	1.3125
43544	1.3868
43545	1.5823
43546	1.5485
43547	1.3791
43548	1.0337
43549	1.0814
43550	1.1836
43551	1.2078
43552	1.596
43553	1.4009
43554	1.6429
43555	0.73827
43556	0.46859
43557	0.45459
43558	0.624
43559	0.81603
43560	0.51733
43561	0.53519
43562	0.56145
43563	0.52682
43564	0.55168
43565	0.48526
43566	0.86041
43567	0.6435
43568	0.76449
43569	0.86206
43570	0.81807
43571	0.78726
43572	0.67882
43573	0.7738
43574	0.83045
43575	0.71295
43576	0.912
43577	0.6778
43578	1.1779
43579	1.1343
43580	0.66656
43581	0.72105
43582	0.94264
43583	0.95402
43584	1.1595
43585	1.0598
43586	1.1452
43587	0.98936
43588	1.1599
43589	1.064
43590	1.1569
43591	1.0699
43592	0.91965
43593	1.1669
43594	1.0149
43595	0.96307
43596	1.1509
43597	1.0263
43598	0.8105
43599	0.88603
43600	0.78703
43601	0.83125
43602	0.60419
43603	0.79243
43604	0.68347
43605	0.75738
43606	0.61862
43607	0.5878
43608	1.3302
43609	1.4352
43610	1.3944
43611	1.3004
43612	0.94698
43613	0.84789
43614	0.77374
43615	0.93484
43616	0.95217
43617	0.92564
43618	1.206
43619	0.98435
43620	0.9545
43621	0.99875
43622	0.8294
43623	1.1164
43624	1.3226
43625	1.2297
43626	1.4337
43627	0.60507
43628	0.47548
43629	0.5633
43630	0.67733
43631	0.36017
43632	0.51167
43633	0.31266
43634	0.36168
43635	0.40833
43636	0.35936
43637	9.9455e-002
43638	0.28484
43639	8.0009e-002
43640	8.7867e-002
43641	6.9424e-002
43642	6.1222e-002
43643	4.7583e-002
43644	5.5243e-002
43645	0.11003
43646	0.18537
43647	9.4134e-002
43648	0.1451
43649	0.11719
43650	0.19646
43651	0.25653
43652	0.38242
43653	0.32464
43654	0.45628
43655	0.36412
43656	0.43229
43657	0.53216
43658	0.44628
43659	0.38335
43660	0.50812
43661	0.50354
43662	0.50966
43663	0.44879
43664	0.44268
43665	0.5925
43666	0.5546
43667	0.4899
43668	0.54777
43669	1.3775
43670	1.4816
43671	1.2981
43672	1.4965
43673	1.3989
43674	0.93389
43675	1.207
43676	1.3704
43677	1.2087
43678	1.4437
43679	1.2734
43680	0.48843
43681	0.47816
43682	0.44161
43683	0.46653
43684	0.5424
43685	0.58223
43686	0.56225
43687	0.45354
43688	0.42301
43689	0.41978
43690	0.52228
43691	0.47023
43692	0.48374
43693	0.89928
43694	0.83563
43695	0.80761
43696	0.77689
43697	0.67051
43698	1.1305
43699	1.1425
43700	1.064
43701	1.0171
43702	1.1395
43703	0.76177
43704	1.0562
43705	0.96306
43706	1.1228
43707	1.0088
43708	2.307
43709	2.7661
43710	2.7623
43711	2.7084
43712	3.1479
43713	2.3701
43714	3.3082
43715	2.7548
43716	2.6341
43717	2.5024
43718	2.509
43719	2.6828
43720	1.4518
43721	1.5652
43722	0.97106
43723	1.8044
43724	0.43678
43725	0.43186
43726	0.46177
43727	0.41869
43728	0.42575
43729	0.41824
43730	0.39618
43731	0.3928
43732	0.39244
43733	0.43763
43734	1.4227
43735	0.68745
43736	0.68167
43737	1.4991
43738	1.026
43739	0.95661
43740	1.04
43741	1.0765
43742	1.0311
43743	0.96985
43744	0.94244
43745	1.1269
43746	1.0856
43747	0.9845
43748	1.1231
43749	1.0427
43750	0.6798
43751	0.63093
43752	0.54038
43753	0.4372
43754	0.76963
43755	0.70508
43756	2.064
43757	2.0581
43758	1.6703
43759	1.3362
43760	2.5334
43761	2.8743
43762	2.4537
43763	2.7895
43764	2.3776
43765	2.1323
43766	2.0766
43767	2.426
43768	2.7758
43769	1.8926
43770	2.8527
43771	2.5101
43772	1.7362
43773	1.9032
43774	2.0836
43775	1.8999
43776	1.8327
43777	1.2336
43778	2.7915
43779	2.1547
43780	2.9507
43781	2.2319
43782	1.8836
43783	1.2322
43784	1.2774
43785	1.3078
43786	3.0316
43787	2.2626
43788	2.3111
43789	2.9077
43790	1.9726
43791	1.5057
43792	0.67247
43793	0.64744
43794	0.99891
43795	0.81154
43796	1.1046
43797	1.3509
43798	1.3054
43799	1.3816
43800	0.88762
43801	1.1591
43802	1.5919
43803	1.2741
43804	1.3379
43805	1.1645
43806	1.2403
43807	1.1206
43808	1.3189
43809	1.4207
43810	1.6418
43811	1.6467
43812	1.6579
43813	1.4598
43814	1.3963
43815	1.8444
43816	1.9207
43817	1.8024
43818	1.6526
43819	0.52038
43820	0.3668
43821	0.46267
43822	1.1508
43823	0.6198
43824	1.1052
43825	0.96461
43826	0.93976
43827	0.9976
43828	0.88569
43829	0.69131
43830	0.88029
43831	0.85926
43832	0.73627
43833	0.71973
43834	1.0849
43835	2.9551
43836	1.7871
43837	3.0844
43838	1.8625
43839	1.7443
43840	3.2884
43841	1.6803
43842	2.6854
43843	2.2221
43844	2.4923
43845	3.4831
43846	2.0751
43847	1.9179
43848	2.3319
43849	1.7857
43850	1.6515
43851	1.9327
43852	1.2465
43853	1.646
43854	1.4448
43855	1.3033
43856	1.6594
43857	1.396
43858	1.0164
43859	1.7372
43860	1.3764
43861	0.80168
43862	0.75588
43863	0.65825
43864	0.80289
43865	0.66301
43866	0.91163
43867	0.60473
43868	0.72523
43869	0.45173
43870	0.67058
43871	0.67999
43872	0.62249
43873	0.68695
43874	0.66143
43875	0.60004
43876	0.52196
43877	0.7419
43878	0.58884
43879	0.51386
43880	0.70219
43881	0.64609
43882	0.62297
43883	0.56622
43884	0.73784
43885	0.59902
43886	0.79273
43887	0.9009
43888	0.948
43889	1.2512
43890	1.2289
43891	1.1559
43892	0.42184
43893	0.415
43894	1.0843
43895	0.83908
43896	0.75904
43897	1.8252
43898	1.0019
43899	0.86961
43900	1.9804
43901	0.9777
43902	0.72692
43903	1.0627
43904	2.1009
43905	1.7828
43906	2.2282
43907	1.7499
43908	0.8853
43909	0.78312
43910	0.90882
43911	0.89196
43912	0.83867
43913	0.76855
43914	0.86813
43915	0.82918
43916	0.70401
43917	0.71006
43918	0.76827
43919	0.78901
43920	0.76494
43921	0.6426
43922	0.64355
43923	0.67404
43924	0.56628
43925	0.52364
43926	0.78351
43927	1.2707
43928	1.2846
43929	0.71378
43930	0.80609
43931	0.88394
43932	0.89469
43933	0.86007
43934	1.1594
43935	1.0526
43936	0.82083
43937	0.96045
43938	4.8446
43939	6.009
43940	4.7416
43941	4.5236
43942	6.7281
43943	6.7054
43944	5.921
43945	6.0442
43946	5.0617
43947	6.4256
43948	3.687
43949	4.0343
43950	4.4437
43951	3.7471
43952	3.5803
43953	4.5566
43954	4.1397
43955	5.0002
43956	3.7278
43957	4.1316
43958	3.5198
43959	2.975
43960	3.5691
43961	0.2439
43962	7.8034e-002
43963	6.0924e-002
43964	0.12104
43965	0.19965
43966	6.9939e-002
43967	9.7438e-002
43968	1.2029
43969	1.0581
43970	0.88599
43971	1.0922
43972	1.1514
43973	1.1067
43974	1.0402
43975	1.118
43976	0.96052
43977	0.80287
43978	1.1698
43979	1.2904
43980	2.1061
43981	1.6081
43982	1.603
43983	1.6445
43984	1.6479
43985	1.7781
43986	2.2602
43987	2.695
43988	2.1693
43989	2.8272
43990	2.346
43991	1.4585
43992	1.5852
43993	2.7929
43994	2.2135
43995	1.4984
43996	1.0791
43997	1.0928
43998	1.6256
43999	1.3618
44000	1.1998
44001	1.9332
44002	1.3608
44003	1.2286
44004	1.4431
44005	1.3667
44006	1.7304
44007	1.5235
44008	1.4137
44009	1.7361
44010	1.468
44011	1.562
44012	1.5724
44013	1.3806
44014	1.3726
44015	1.5305
44016	1.4622
44017	1.9672
44018	1.8527
44019	0.96351
44020	0.98611
44021	0.99086
44022	0.86316
44023	1.0183
44024	1.0204
44025	0.96758
44026	0.92673
44027	0.91009
44028	0.84492
44029	0.86585
44030	0.9246
44031	0.88912
44032	0.80253
44033	0.81196
44034	0.86013
44035	0.83629
44036	1.1321
44037	1.4158
44038	1.143
44039	1.3973
44040	1.0417
44041	1.1211
44042	1.4744
44043	1.3421
44044	0.77362
44045	0.80871
44046	0.50306
44047	0.4205
44048	0.78944
44049	0.90315
44050	0.92484
44051	0.6598
44052	0.53596
44053	0.61626
44054	0.39971
44055	0.36701
44056	0.81355
44057	0.62273
44058	0.42491
44059	0.35999
44060	0.35105
44061	0.81506
44062	0.98463
44063	2.2269
44064	2.0988
44065	2.1003
44066	2.2131
44067	2.1219
44068	1.873
44069	1.7599
44070	1.7261
44071	1.4445
44072	1.4244
44073	1.7851
44074	1.658
44075	1.6086
44076	1.9505
44077	1.6988
44078	1.6319
44079	1.5688
44080	1.8621
44081	1.7863
44082	1.8132
44083	1.8041
44084	1.8896
44085	2.5455
44086	2.0518
44087	2.4495
44088	1.6856
44089	1.6039
44090	2.9072
44091	1.9486
44092	1.8681
44093	3.2419
44094	3.7268
44095	1.8077
44096	1.8383
44097	1.5736
44098	1.6426
44099	1.8686
44100	2.4467
44101	1.67
44102	1.7244
44103	1.8267
44104	4.7021
44105	3.8845
44106	2.2879
44107	3.4357
44108	2.6506
44109	1.954
44110	5.1794
44111	3.1153
44112	2.8944
44113	1.8569
44114	2.9048
44115	2.214
44116	4.3962
44117	4.5157
44118	3.4645
44119	2.2932
44120	5.1492
44121	4.6056
44122	1.6967
44123	1.6113
44124	1.4963
44125	1.534
44126	1.2493
44127	2.0538
44128	1.9092
44129	1.8518
44130	1.8149
44131	1.49
44132	1.5147
44133	1.1868
44134	0.83984
44135	0.92674
44136	0.84401
44137	0.65165
44138	0.77276
44139	0.62174
44140	1.021
44141	0.93458
44142	0.59893
44143	0.58789
44144	0.77112
44145	0.80845
44146	0.6007
44147	0.8742
44148	0.90308
44149	0.7744
44150	0.85308
44151	0.80558
44152	0.93384
44153	0.57066
44154	1.1108
44155	0.62361
44156	0.96558
44157	0.97408
44158	0.26949
44159	0.33152
44160	0.36123
44161	0.69202
44162	0.67923
44163	0.69699
44164	0.86781
44165	0.6018
44166	0.54249
44167	0.59154
44168	0.88719
44169	0.45787
44170	0.40867
44171	0.24426
44172	1.146
44173	0.81434
44174	1.1034
44175	1.0395
44176	1.1723
44177	1.108
44178	1.0837
44179	0.93172
44180	1.0497
44181	0.91204
44182	0.98341
44183	1.0588
44184	0.87898
44185	0.81105
44186	1.0711
44187	0.96405
44188	3.4494
44189	3.2111
44190	2.6654
44191	3.328
44192	3.4889
44193	3.1807
44194	3.8342
44195	3.6331
44196	1.0724
44197	1.1866
44198	0.95681
44199	1.0252
44200	2.5835
44201	2.7364
44202	2.918
44203	4.0326
44204	3.7214
44205	3.3887
44206	3.0689
44207	1.9279
44208	2.0705
44209	1.7864
44210	2.2164
44211	2.3994
44212	2.1262
44213	2.1664
44214	2.3383
44215	2.5284
44216	2.2674
44217	2.1015
44218	1.4912
44219	1.3547
44220	2.5778
44221	2.212
44222	2.8554
44223	1.7412
44224	2.5432
44225	2.3746
44226	4.9154
44227	6.1961
44228	4.0715
44229	4.5731
44230	7.0131
44231	5.8851
44232	6.5258
44233	5.8504
44234	4.9335
44235	6.3837
44236	6.1067
44237	4.782
44238	6.6119
44239	7.315
44240	6.4975
44241	5.637
44242	7.771
44243	5.136
44244	4.6853
44245	7.2319
44246	6.0744
44247	4.396
44248	5.3994
44249	5.4184
44250	4.2944
44251	0.58215
44252	0.64976
44253	0.88569
44254	0.67803
44255	0.75388
44256	4.9943
44257	4.9769
44258	5.5081
44259	4.3715
44260	4.6629
44261	3.8544
44262	0.73365
44263	0.8798
44264	0.57111
44265	0.94432
44266	0.86887
44267	0.63089
44268	0.75626
44269	1.24
44270	1.2685
44271	1.0159
44272	1.0695
44273	1.3263
44274	1.2109
44275	1.5332
44276	0.72818
44277	0.78682
44278	0.46806
44279	0.76658
44280	1.3396
44281	1.1689
44282	1.0843
44283	0.54703
44284	0.65561
44285	0.65634
44286	0.67958
44287	0.81856
44288	0.89915
44289	0.84163
44290	0.70961
44291	0.68272
44292	0.62933
44293	0.63291
44294	0.57616
44295	0.78492
44296	0.73198
44297	0.70936
44298	0.82182
44299	0.88021
44300	0.89181
44301	1.3304
44302	1.1248
44303	1.0102
44304	0.93493
44305	0.98795
44306	1.8073
44307	4.2137
44308	4.2619
44309	3.7067
44310	1.8027
44311	2.0527
44312	3.3519
44313	4.4401
44314	4.2919
44315	2.8904
44316	2.0622
44317	4.5974
44318	4.0167
44319	3.8016
44320	4.3375
44321	1.2839
44322	2.1534
44323	1.8134
44324	2.2874
44325	3.237
44326	2.741
44327	3.1217
44328	2.2652
44329	3.0157
44330	2.3259
44331	2.9211
44332	2.0598
44333	2.9567
44334	0.95888
44335	0.72578
44336	0.77815
44337	0.94913
44338	0.73719
44339	1.0635
44340	1.1951
44341	1.1108
44342	1.4736
44343	1.0376
44344	0.9878
44345	1.0266
44346	0.97785
44347	1.4184
44348	1.1205
44349	1.0622
44350	1.1952
44351	1.0977
44352	1.0196
44353	0.84963
44354	0.77805
44355	0.53638
44356	0.79272
44357	0.72589
44358	0.74507
44359	0.76905
44360	1.656
44361	1.5852
44362	1.7454
44363	1.7972
44364	1.8591
44365	1.5416
44366	1.5343
44367	1.8258
44368	1.9755
44369	2.116
44370	2.1045
44371	1.7812
44372	1.7889
44373	2.1225
44374	2.1203
44375	2.1327
44376	2.1054
44377	0.94439
44378	0.84263
44379	0.89146
44380	0.77571
44381	0.69229
44382	0.75659
44383	0.86367
44384	0.76413
44385	0.76349
44386	0.73799
44387	1.4519
44388	1.5652
44389	1.5086
44390	1.2165
44391	1.5776
44392	1.5029
44393	1.5719
44394	1.4756
44395	1.6238
44396	1.2172
44397	1.1362
44398	1.5514
44399	1.7113
44400	0.33867
44401	0.57464
44402	0.24127
44403	0.36366
44404	0.49749
44405	0.31975
44406	0.45616
44407	0.25816
44408	0.40258
44409	12.044
44410	9.6618
44411	7.7227
44412	7.3729
44413	9.566
44414	7.2094
44415	7.7982
44416	9.0574
44417	7.153
44418	8.3473
44419	9.2793
44420	8.6681
44421	11.391
44422	1.4921
44423	1.3125
44424	0.94984
44425	1.132
44426	1.3147
44427	1.5215
44428	0.97178
44429	1.1681
44430	1.0245
44431	1.1376
44432	0.9558
44433	1.0336
44434	1.3043
44435	1.2183
44436	1.487
44437	1.2419
44438	1.4584
44439	1.3625
44440	1.4089
44441	1.5533
44442	1.4064
44443	1.5091
44444	0.41079
44445	0.49038
44446	0.48302
44447	5.3077
44448	4.6428
44449	3.0519
44450	3.8213
44451	2.8896
44452	4.2105
44453	4.1914
44454	3.5843
44455	4.9328
44456	4.2943
44457	5.2088
44458	4.4054
44459	4.0651
44460	3.491
44461	1.4111
44462	0.57093
44463	0.7845
44464	0.82275
44465	0.59231
44466	0.76549
44467	0.63376
44468	0.59154
44469	0.36845
44470	0.21975
44471	0.30572
44472	0.42768
44473	0.38335
44474	0.26334
44475	0.10866
44476	7.6227e-002
44477	0.34795
44478	0.34321
44479	3.2505
44480	3.3255
44481	4.4927
44482	3.3082
44483	3.5408
44484	3.3482
44485	3.1981
44486	3.3668
44487	3.9474
44488	3.5179
44489	3.7422
44490	4.1084
44491	4.2978
44492	3.7272
44493	0.40822
44494	0.41583
44495	0.43819
44496	0.26799
44497	0.31338
44498	0.44353
44499	0.48766
44500	0.56433
44501	0.87378
44502	0.85299
44503	0.76717
44504	0.62621
44505	3.8607
44506	4.5829
44507	3.3157
44508	3.5721
44509	4.8265
44510	4.96
44511	3.695
44512	4.1263
44513	3.6567
44514	0.38044
44515	0.3964
44516	0.48773
44517	0.50098
44518	0.59899
44519	0.51525
44520	0.57012
44521	0.53798
44522	0.59059
44523	0.55274
44524	0.63601
44525	0.57868
44526	0.52805
44527	0.4899
44528	0.41172
44529	0.45697
44530	0.59
44531	0.51075
44532	0.54719
44533	0.65684
44534	0.64194
44535	0.67285
44536	0.60165
44537	0.63136
44538	1.7374
44539	2.4314
44540	3.0661
44541	1.5514
44542	2.0927
44543	1.5374
44544	2.2022
44545	2.0875
44546	2.0506
44547	2.0235
44548	1.1444
44549	0.9188
44550	0.79822
44551	1.0834
44552	1.0052
44553	0.6847
44554	0.56528
44555	0.71493
44556	0.61089
44557	0.79101
44558	0.66351
44559	0.75537
44560	0.92174
44561	1.9474
44562	1.7528
44563	1.8317
44564	2.2881
44565	2.6844
44566	2.2977
44567	2.4043
44568	2.0143
44569	2.9769
44570	2.8013
44571	2.2016
44572	2.7407
44573	3.0734
44574	2.4034
44575	2.7633
44576	3.0141
44577	4.6082
44578	5.9858
44579	4.761
44580	3.9292
44581	3.2625
44582	5.4492
44583	4.3038
44584	6.3744
44585	6.7862
44586	5.2192
44587	6.9032
44588	6.2333
44589	4.6952
44590	4.1146
44591	2.9754
44592	4.774
44593	4.0464
44594	2.8882
44595	2.8661
44596	4.236
44597	4.8028
44598	4.6282
44599	4.028
44600	4.3395
44601	4.2296
44602	4.0552
44603	4.9016
44604	4.4462
44605	3.9922
44606	4.6871
44607	4.7955
44608	4.1238
44609	4.5428
44610	4.58
44611	5.027
44612	5.4637
44613	5.2613
44614	0.43109
44615	0.54875
44616	0.49375
44617	0.49191
44618	0.33521
44619	0.33641
44620	0.39967
44621	0.67664
44622	0.60534
44623	0.39918
44624	0.3544
44625	0.47441
44626	0.42299
44627	0.52822
44628	0.59756
44629	0.57756
44630	0.28103
44631	0.33003
44632	0.48566
44633	0.31605
44634	0.7204
44635	0.26395
44636	0.33784
44637	0.38993
44638	0.48327
44639	0.48904
44640	0.59061
44641	2.8827
44642	1.7869
44643	2.9368
44644	2.3955
44645	1.947
44646	1.9069
44647	2.1799
44648	1.4025
44649	1.9259
44650	2.6673
44651	2.1897
44652	1.0685
44653	1.0644
44654	1.9224
44655	2.3135
44656	1.0732
44657	2.0695
44658	1.7539
44659	2.8663
44660	2.2122
44661	1.2198
44662	0.99936
44663	1.2657
44664	1.5789
44665	1.4175
44666	1.7098
44667	1.3253
44668	1.1179
44669	1.8191
44670	1.1172
44671	1.4567
44672	1.9667
44673	2.0565
44674	1.8304
44675	1.0995
44676	1.6813
44677	0.96336
44678	0.93175
44679	0.85926
44680	1.6673
44681	0.70756
44682	0.7701
44683	0.86236
44684	0.80365
44685	0.83275
44686	0.73589
44687	0.82511
44688	0.88856
44689	0.84718
44690	0.78581
44691	0.87946
44692	0.83669
44693	0.89195
44694	0.89833
44695	0.79122
44696	0.80558
44697	0.75001
44698	0.99136
44699	0.95628
44700	0.79003
44701	0.7916
44702	0.765
44703	0.74242
44704	0.77635
44705	1.0209
44706	0.98944
44707	0.78299
44708	0.79776
44709	0.79537
44710	0.8166
44711	0.81319
44712	0.69587
44713	0.80928
44714	0.6938
44715	0.7351
44716	0.69404
44717	0.47711
44718	0.5492
44719	0.51244
44720	0.65814
44721	0.55061
44722	0.39664
44723	0.39365
44724	0.62863
44725	0.44567
44726	0.53978
44727	0.42198
44728	0.35389
44729	0.36145
44730	0.65837
44731	0.54147
44732	0.40689
44733	0.43591
44734	0.52191
44735	0.41912
44736	0.66236
44737	0.48234
44738	0.58603
44739	0.50059
44740	0.53299
44741	0.48369
44742	0.60473
44743	1.0629
44744	1.5536
44745	1.4895
44746	1.365
44747	1.2447
44748	0.94167
44749	0.99675
44750	1.3373
44751	0.82244
44752	0.84801
44753	1.0128
44754	1.0297
44755	1.1486
44756	1.2245
44757	1.3173
44758	1.246
44759	2.7698
44760	2.1859
44761	1.7802
44762	2.9233
44763	1.8065
44764	1.8943
44765	2.1346
44766	1.8398
44767	2.4939
44768	1.9616
44769	2.0448
44770	2.3833
44771	1.894
44772	2.2712
44773	2.4227
44774	2.3766
44775	2.8103
44776	2.0852
44777	2.3714
44778	2.8655
44779	2.5978
44780	2.3931
44781	2.3258
44782	2.8254
44783	1.7605
44784	1.7393
44785	1.0687
44786	1.1784
44787	1.6226
44788	1.8063
44789	1.8815
44790	1.7875
44791	2.0892
44792	1.1943
44793	1.1282
44794	1.2432
44795	0.96212
44796	1.2446
44797	1.1905
44798	1.3204
44799	1.369
44800	0.95145
44801	0.95166
44802	1.3336
44803	1.2669
44804	0.95507
44805	0.51829
44806	0.55961
44807	0.54355
44808	0.60124
44809	0.82625
44810	0.70777
44811	0.58498
44812	0.50858
44813	0.58466
44814	1.0032
44815	0.92828
44816	1.1153
44817	1.406
44818	1.2328
44819	1.0598
44820	1.1411
44821	1.1054
44822	1.0166
44823	1.1053
44824	1.4977
44825	1.4833
44826	1.601
44827	1.3744
44828	0.53143
44829	0.70847
44830	0.57076
44831	0.6279
44832	0.57311
44833	0.83634
44834	0.89086
44835	1.3472
44836	0.97351
44837	1.3168
44838	1.109
44839	0.72447
44840	0.84806
44841	0.93007
44842	0.88938
44843	0.72693
44844	0.45667
44845	0.45896
44846	0.67936
44847	0.55806
44848	0.73865
44849	0.91939
44850	0.58431
44851	0.81098
44852	0.75814
44853	0.83144
44854	0.74718
44855	1.0062
44856	0.92142
44857	0.92736
44858	0.83109
44859	0.83142
44860	0.23797
44861	0.44652
44862	0.40708
44863	0.18575
44864	0.23238
44865	0.63502
44866	0.61032
44867	0.14679
44868	0.27972
44869	0.57868
44870	0.51566
44871	0.39882
44872	0.13948
44873	0.26973
44874	0.47072
44875	0.66686
44876	0.76493
44877	0.85753
44878	0.20164
44879	0.27881
44880	1.0358
44881	1.0063
44882	1.0568
44883	0.98964
44884	1.3627
44885	1.0299
44886	1.3634
44887	0.73713
44888	0.97357
44889	0.83824
44890	1.2382
44891	0.97696
44892	0.85793
44893	1.3006
44894	1.1558
44895	0.87863
44896	1.0575
44897	0.88127
44898	1.0242
44899	0.96296
44900	0.58182
44901	0.89235
44902	0.9036
44903	1.3148
44904	1.7154
44905	1.8
44906	1.0485
44907	1.172
44908	1.762
44909	1.4027
44910	1.004
44911	0.75113
44912	0.69857
44913	0.63379
44914	0.59645
44915	0.66893
44916	0.83142
44917	0.77491
44918	0.59715
44919	0.66668
44920	0.62904
44921	0.55193
44922	0.70827
44923	0.72674
44924	0.60877
44925	0.5343
44926	0.53139
44927	0.50942
44928	0.59029
44929	0.99242
44930	0.84959
44931	0.87094
44932	1.0498
44933	1.0441
44934	0.99085
44935	0.94251
44936	1.0186
44937	1.0528
44938	0.95232
44939	0.87099
44940	0.96047
44941	0.88069
44942	0.9829
44943	0.90014
44944	0.85449
44945	0.89135
44946	1.0263
44947	0.96388
44948	1.0533
44949	0.98292
44950	1.0798
44951	1.7493
44952	2.2349
44953	0.99493
44954	0.89843
44955	1.6844
44956	2.2706
44957	1.193
44958	0.93209
44959	1.4509
44960	0.67721
44961	0.87451
44962	0.53565
44963	0.394
44964	0.83137
44965	1.1701
44966	1.4685
44967	0.66535
44968	0.46305
44969	0.78953
44970	0.70937
44971	0.59178
44972	2.8231
44973	3.097
44974	3.0813
44975	3.3509
44976	2.8396
44977	3.1969
44978	3.2695
44979	3.3138
44980	3.4304
44981	3.5156
44982	3.4767
44983	3.5014
44984	3.4519
44985	3.3797
44986	3.4148
44987	2.9322
44988	2.3382
44989	2.947
44990	3.4566
44991	3.2321
44992	3.2942
44993	3.2658
44994	2.6815
44995	2.8963
44996	3.4736
44997	2.0127
44998	1.9524
44999	1.6761
45000	1.3251
45001	1.0742
45002	2.5396
45003	3.0561
45004	1.9098
45005	3.0112
45006	2.7477
45007	3.0017
45008	2.7758
45009	0.96935
45010	1.1888
45011	1.3173
45012	1.2351
45013	1.3943
45014	1.1073
45015	2.321
45016	2.4046
45017	1.5135
45018	1.5184
45019	1.3106
45020	2.2234
45021	2.0987
45022	2.0647
45023	1.8097
45024	1.7776
45025	1.625
45026	1.3666
45027	1.9455
45028	1.8474
45029	1.6557
45030	1.3957
45031	1.0865
45032	0.85737
45033	0.98584
45034	0.89121
45035	1.1154
45036	1.1136
45037	1.0118
45038	0.80704
45039	0.4447
45040	0.9102
45041	0.72324
45042	0.99644
45043	0.78876
45044	0.78305
45045	0.66373
45046	0.68471
45047	0.925
45048	0.96125
45049	0.94143
45050	0.79035
45051	0.82707
45052	0.91159
45053	1.0609
45054	0.27898
45055	0.424
45056	0.56516
45057	0.87827
45058	1.1318
45059	0.98247
45060	1.205
45061	0.93909
45062	0.97592
45063	1.5827
45064	1.5053
45065	1.1163
45066	1.3755
45067	1.7183
45068	1.0367
45069	0.8509
45070	1.7717
45071	1.6144
45072	1.8439
45073	1.791
45074	1.5577
45075	1.4251
45076	1.5057
45077	1.6971
45078	1.6121
45079	1.6782
45080	1.5921
45081	0.35118
45082	0.43476
45083	0.83441
45084	0.75285
45085	1.5471
45086	1.5689
45087	2.16
45088	1.5834
45089	1.7058
45090	1.5992
45091	1.893
45092	2.2528
45093	2.2807
45094	2.0148
45095	2.493
45096	2.4573
45097	2.0995
45098	1.9372
45099	0.72277
45100	0.82895
45101	0.72976
45102	0.86292
45103	0.42548
45104	0.47218
45105	0.59346
45106	0.45439
45107	0.47069
45108	0.55113
45109	1.4542
45110	1.2102
45111	1.6188
45112	1.4827
45113	1.3427
45114	1.4229
45115	1.5786
45116	1.5876
45117	1.4963
45118	1.8125
45119	1.7179
45120	1.5987
45121	1.3423
45122	1.624
45123	1.531
45124	1.4426
45125	1.6827
45126	2.1515
45127	2.3955
45128	2.9024
45129	2.3069
45130	2.971
45131	1.6562
45132	2.1741
45133	2.0044
45134	1.6662
45135	2.5635
45136	2.1409
45137	2.3734
45138	1.9997
45139	1.4803
45140	1.2827
45141	1.054
45142	1.0949
45143	1.5291
45144	1.8843
45145	1.5207
45146	1.3022
45147	1.4677
45148	2.4116
45149	2.1933
45150	1.8776
45151	1.3526
45152	1.2162
45153	1.1026
45154	1.799
45155	1.5914
45156	0.76286
45157	1.2473
45158	1.0459
45159	1.3211
45160	0.988
45161	1.1578
45162	1.1809
45163	0.94636
45164	0.88224
45165	0.99535
45166	1.1232
45167	0.77081
45168	0.80089
45169	1.0485
45170	0.85328
45171	1.099
45172	0.82517
45173	0.92203
45174	1.0404
45175	0.99876
45176	0.87619
45177	0.77709
45178	1.107
45179	0.73592
45180	0.78113
45181	0.83244
45182	1.0564
45183	0.90374
45184	1.7242
45185	1.2243
45186	1.228
45187	1.282
45188	1.5306
45189	1.5795
45190	1.2084
45191	2.2496
45192	1.6554
45193	0.43178
45194	0.71672
45195	0.78916
45196	0.46236
45197	0.41356
45198	0.44918
45199	1.6304
45200	1.7953
45201	1.8312
45202	1.7402
45203	2.0377
45204	1.7858
45205	1.7043
45206	2.3029
45207	2.3222
45208	2.0841
45209	1.5838
45210	2.0408
45211	2.5936
45212	1.6736
45213	1.6384
45214	1.7789
45215	2.4788
45216	3.0429
45217	2.0884
45218	2.0122
45219	1.8649
45220	1.7777
45221	2.1799
45222	2.6061
45223	2.9031
45224	1.7355
45225	2.2004
45226	2.1198
45227	0.87474
45228	0.7701
45229	1.6882
45230	1.8962
45231	1.804
45232	0.97996
45233	1.1637
45234	1.3889
45235	1.5372
45236	1.0852
45237	1.7257
45238	1.2081
45239	1.0057
45240	1.408
45241	1.424
45242	1.5417
45243	1.4383
45244	1.3978
45245	1.311
45246	1.4484
45247	1.3697
45248	1.5703
45249	1.4869
45250	1.221
45251	1.0243
45252	0.16636
45253	0.10048
45254	0.12226
45255	8.9431e-002
45256	0.92628
45257	0.92232
45258	1.0318
45259	0.89003
45260	0.92127
45261	0.90897
45262	1.2661
45263	1.2884
45264	1.0155
45265	0.97584
45266	1.5497
45267	1.8772
45268	1.2651
45269	1.0781
45270	1.862
45271	2.2524
45272	2.4197
45273	2.5051
45274	2.0208
45275	2.6607
45276	2.2872
45277	3.0595
45278	2.3904
45279	2.7056
45280	2.0858
45281	1.3496
45282	1.7058
45283	3.718
45284	2.9537
45285	1.2353
45286	1.547
45287	1.4689
45288	2.5176
45289	1.8365
45290	2.5938
45291	2.1374
45292	1.6059
45293	1.2115
45294	1.2038
45295	1.7805
45296	2.3465
45297	1.7383
45298	1.9293
45299	1.5677
45300	0.95031
45301	0.79732
45302	0.75369
45303	0.9792
45304	0.66841
45305	1.0326
45306	0.87068
45307	1.0831
45308	1.1473
45309	1.1294
45310	1.2844
45311	1.2126
45312	1.0063
45313	1.1357
45314	0.98527
45315	1.2426
45316	1.2909
45317	1.2777
45318	1.0906
45319	1.0541
45320	1.3202
45321	1.2769
45322	1.2281
45323	0.99969
45324	1.1364
45325	0.31315
45326	0.79119
45327	0.69749
45328	0.7313
45329	0.36529
45330	0.50024
45331	0.65416
45332	0.66736
45333	0.4717
45334	0.2291
45335	0.14903
45336	0.79712
45337	0.89083
45338	0.58378
45339	0.75951
45340	0.86581
45341	0.77802
45342	0.91019
45343	0.31021
45344	0.44592
45345	0.47713
45346	0.33934
45347	0.21089
45348	0.42757
45349	0.35872
45350	0.26405
45351	0.53595
45352	0.58202
45353	0.67497
45354	0.29102
45355	0.27523
45356	0.39618
45357	0.28713
45358	0.32655
45359	0.28504
45360	0.38852
45361	0.44554
45362	0.37428
45363	0.37189
45364	0.45879
45365	0.19184
45366	8.7657e-002
45367	0.12842
45368	0.14342
45369	0.18587
45370	9.442e-002
45371	0.13955
45372	0.14657
45373	0.12338
45374	0.16047
45375	0.18012
45376	0.18701
45377	0.18815
45378	8.5242e-002
45379	8.7836e-002
45380	9.7327e-002
45381	0.13009
45382	8.436e-002
45383	8.2855e-002
45384	4.5478e-002
45385	3.0562e-002
45386	5.1471e-002
45387	5.3514e-002
45388	8.884e-002
45389	3.0979
45390	3.2927
45391	2.2935
45392	2.4835
45393	1.8777
45394	1.5322
45395	3.4446
45396	1.0067
45397	2.174
45398	1.1426
45399	0.9067
45400	1.6156
45401	1.4926
45402	0.68518
45403	0.48948
45404	0.77022
45405	0.9531
45406	0.79892
45407	0.79413
45408	1.0263
45409	0.95027
45410	0.91162
45411	0.80101
45412	0.88985
45413	0.77827
45414	1.1242
45415	0.87133
45416	1.1182
45417	1.0504
45418	1.0629
45419	1.0524
45420	0.88776
45421	0.8219
45422	0.80984
45423	2.9531
45424	2.8866
45425	2.759
45426	3.0273
45427	2.7245
45428	3.6818
45429	3.0772
45430	3.0985
45431	3.0958
45432	2.8144
45433	2.9907
45434	3.5851
45435	3.6823
45436	0.91542
45437	0.85538
45438	0.8448
45439	0.95058
45440	1.1504
45441	1.4629
45442	1.3987
45443	0.61407
45444	0.56354
45445	0.6357
45446	0.75151
45447	0.66592
45448	0.49194
45449	0.66645
45450	0.76143
45451	0.81865
45452	0.76004
45453	0.76604
45454	0.71519
45455	0.45388
45456	0.76261
45457	0.82383
45458	0.58603
45459	0.69919
45460	0.87836
45461	0.58767
45462	0.92751
45463	0.58161
45464	0.59058
45465	0.49617
45466	0.38044
45467	0.42745
45468	0.77248
45469	0.7743
45470	0.74819
45471	0.92456
45472	0.66746
45473	0.5629
45474	0.89377
45475	1.3494
45476	1.1617
45477	1.2105
45478	1.0934
45479	1.0215
45480	0.95384
45481	1.3399
45482	0.72116
45483	0.56502
45484	0.71163
45485	0.6056
45486	1.1036
45487	0.88598
45488	1.3416
45489	1.3207
45490	1.1599
45491	0.62925
45492	0.70196
45493	0.64169
45494	0.305
45495	0.33236
45496	0.49048
45497	0.45982
45498	0.54573
45499	0.47175
45500	0.45751
45501	0.50745
45502	0.61537
45503	0.76978
45504	0.65581
45505	0.41959
45506	0.50728
45507	0.85295
45508	0.41562
45509	0.41486
45510	0.80233
45511	0.9773
45512	1.365
45513	2.1581
45514	2.1269
45515	1.2175
45516	1.05
45517	1.9016
45518	1.8649
45519	2.1995
45520	2.274
45521	1.149
45522	1.7589
45523	1.5372
45524	2.0664
45525	1.8734
45526	1.8622
45527	1.6476
45528	1.6918
45529	1.3017
45530	1.2545
45531	0.96552
45532	1.5289
45533	1.2034
45534	1.3981
45535	1.0445
45536	1.1787
45537	1.1226
45538	1.2536
45539	1.2293
45540	1.0842
45541	0.79877
45542	0.76135
45543	0.68097
45544	0.75087
45545	0.76933
45546	0.86253
45547	0.57898
45548	0.6588
45549	0.70689
45550	0.68331
45551	0.68328
45552	0.71524
45553	0.4938
45554	0.43344
45555	0.69406
45556	0.56842
45557	0.49108
45558	0.72904
45559	0.70051
45560	0.80064
45561	1.1865
45562	1.0919
45563	0.89928
45564	0.94321
45565	0.99598
45566	0.91055
45567	0.80817
45568	0.98292
45569	1.0235
45570	0.99172
45571	1.0228
45572	0.94175
45573	0.81706
45574	0.91301
45575	0.92573
45576	0.83548
45577	0.77835
45578	1.038
45579	0.79523
45580	1.3323
45581	1.2919
45582	1.089
45583	1.2169
45584	1.2574
45585	1.1067
45586	1.0615
45587	0.88319
45588	0.57427
45589	0.71834
45590	0.75821
45591	0.48013
45592	0.56355
45593	0.53024
45594	0.65195
45595	0.68264
45596	0.57002
45597	0.28751
45598	0.23863
45599	0.19307
45600	0.10952
45601	0.2954
45602	0.19674
45603	6.7392e-002
45604	5.5998e-002
45605	6.649e-002
45606	0.24553
45607	0.31977
45608	0.16021
45609	0.31523
45610	0.19122
45611	0.25773
45612	0.27431
45613	0.43116
45614	1.1863
45615	0.4177
45616	1.1136
45617	0.84004
45618	0.76092
45619	1.2033
45620	1.4385
45621	1.5997
45622	1.4629
45623	1.7011
45624	1.4428
45625	1.2729
45626	1.0076
45627	1.0223
45628	1.5115
45629	0.41509
45630	0.50952
45631	0.4108
45632	0.44666
45633	0.63977
45634	0.40796
45635	0.46339
45636	0.39609
45637	0.67213
45638	0.54249
45639	0.49433
45640	0.45743
45641	0.3829
45642	0.40069
45643	0.85085
45644	0.80108
45645	0.72591
45646	0.77272
45647	0.89605
45648	0.70596
45649	0.45961
45650	0.39257
45651	0.64488
45652	0.38041
45653	0.82982
45654	0.83431
45655	0.76389
45656	0.66814
45657	0.77534
45658	0.62552
45659	0.91992
45660	0.61936
45661	0.91475
45662	0.66942
45663	0.56353
45664	0.87236
45665	0.86042
45666	0.8189
45667	0.73693
45668	0.83887
45669	0.76623
45670	0.90589
45671	0.83542
45672	0.72479
45673	0.66495
45674	0.80762
45675	0.85105
45676	0.69323
45677	0.73869
45678	0.95911
45679	1.0808
45680	1.2855
45681	1.2115
45682	0.42848
45683	0.69121
45684	0.80929
45685	0.59829
45686	0.52809
45687	0.34334
45688	0.45493
45689	0.63447
45690	0.73512
45691	0.70071
45692	0.86188
45693	0.92978
45694	0.9981
45695	0.95822
45696	0.99773
45697	0.79557
45698	0.70636
45699	0.67464
45700	0.91727
45701	0.74326
45702	0.88849
45703	0.70837
45704	0.65142
45705	0.80683
45706	0.75608
45707	1.1103
45708	1.7277
45709	1.5885
45710	1.7766
45711	1.7259
45712	1.6931
45713	2.0518
45714	1.0388
45715	0.73179
45716	0.87561
45717	1.6497
45718	1.4907
45719	1.0564
45720	1.0752
45721	0.56224
45722	0.68206
45723	1.2416
45724	0.90594
45725	0.6957
45726	0.96852
45727	1.4146
45728	1.2523
45729	1.2425
45730	1.4676
45731	0.8452
45732	1.6756
45733	1.6079
45734	1.3692
45735	1.6204
45736	1.4587
45737	0.56631
45738	0.60057
45739	0.42239
45740	0.58977
45741	0.65724
45742	0.477
45743	0.74444
45744	0.46413
45745	0.38801
45746	0.65974
45747	0.76482
45748	0.65444
45749	0.62533
45750	0.80341
45751	0.9025
45752	0.98207
45753	1.0135
45754	1.1978
45755	1.1405
45756	0.96078
45757	0.86007
45758	0.8754
45759	0.72783
45760	0.69134
45761	0.83761
45762	1.2363
45763	1.0816
45764	0.97814
45765	1.1072
45766	1.1242
45767	0.92731
45768	0.87241
45769	1.0559
45770	1.0057
45771	1.055
45772	0.97816
45773	0.95286
45774	1.1357
45775	1.1202
45776	1.2014
45777	1.1573
45778	0.94236
45779	0.88705
45780	0.88491
45781	0.96431
45782	1.0146
45783	1.0454
45784	1.0309
45785	1.1037
45786	0.99354
45787	1.144
45788	1.0018
45789	0.89283
45790	0.90134
45791	0.73312
45792	0.8274
45793	1.1167
45794	1.0447
45795	0.97785
45796	0.74179
45797	0.73062
45798	0.68549
45799	0.74652
45800	0.74069
45801	0.74253
45802	0.67279
45803	0.62522
45804	0.68374
45805	0.55603
45806	1.3018
45807	1.1172
45808	0.50667
45809	0.64881
45810	0.68791
45811	0.54202
45812	0.46283
45813	0.55613
45814	0.46041
45815	0.86247
45816	1.0288
45817	1.1976
45818	0.92255
45819	1.65
45820	1.4231
45821	1.0728
45822	2.12
45823	1.9908
45824	0.98091
45825	1.5073
45826	1.238
45827	1.9612
45828	1.8184
45829	1.3593
45830	1.3066
45831	1.4041
45832	1.9444
45833	1.5714
45834	1.1701
45835	1.0458
45836	2.9403
45837	3.8345
45838	2.9892
45839	2.5898
45840	1.6551
45841	2.7288
45842	1.1411
45843	1.7351
45844	3.7194
45845	2.6799
45846	1.3937
45847	1.1601
45848	1.1511
45849	0.97903
45850	1.1734
45851	1.2534
45852	2.787
45853	2.5354
45854	2.0867
45855	2.6518
45856	2.2369
45857	2.6749
45858	2.1496
45859	1.7741
45860	1.0732
45861	0.74859
45862	0.90699
45863	1.0594
45864	0.8481
45865	0.76181
45866	0.74609
45867	0.75525
45868	0.85837
45869	0.75969
45870	0.6761
45871	0.61353
45872	0.66806
45873	0.88864
45874	0.99121
45875	1.2408
45876	1.0217
45877	1.2593
45878	0.95954
45879	1.1733
45880	0.96532
45881	1.543
45882	1.6511
45883	1.6688
45884	1.2911
45885	1.7084
45886	0.8304
45887	0.80109
45888	1.0708
45889	1.2172
45890	0.73799
45891	1.2113
45892	1.1146
45893	0.67096
45894	0.66883
45895	1.548
45896	1.4269
45897	1.4341
45898	1.6328
45899	1.6708
45900	1.6444
45901	0.34523
45902	0.26641
45903	0.21577
45904	0.42256
45905	0.33955
45906	0.35126
45907	0.32607
45908	0.18417
45909	0.11032
45910	0.20986
45911	0.13586
45912	2.0738
45913	1.8835
45914	1.871
45915	1.9359
45916	2.029
45917	1.7687
45918	2.1681
45919	2.0846
45920	1.2799
45921	1.2974
45922	1.7213
45923	1.9766
45924	1.9615
45925	1.8065
45926	1.5233
45927	1.7246
45928	1.8232
45929	1.5747
45930	2.3048
45931	2.3367
45932	2.1531
45933	2.1359
45934	0.84642
45935	0.92881
45936	1.078
45937	0.82265
45938	1.15
45939	0.74938
45940	0.70521
45941	0.80477
45942	0.99702
45943	1.1778
45944	1.6514
45945	1.5868
45946	0.99439
45947	0.92825
45948	1.607
45949	1.5013
45950	0.51472
45951	0.40872
45952	0.62776
45953	0.66859
45954	0.65564
45955	0.59606
45956	0.51747
45957	0.34865
45958	0.44922
45959	0.53248
45960	0.33242
45961	0.3436
45962	0.43754
45963	0.4288
45964	0.42755
45965	0.41955
45966	0.42082
45967	0.43234
45968	0.40726
45969	0.33466
45970	0.5671
45971	0.53293
45972	0.48113
45973	0.46645
45974	0.59377
45975	0.52207
45976	0.49217
45977	0.73452
45978	1.1673
45979	1.1464
45980	0.96117
45981	0.84679
45982	0.98156
45983	0.69465
45984	0.6576
45985	0.95519
45986	0.79336
45987	0.72898
45988	0.75764
45989	0.73027
45990	0.72727
45991	1.1388
45992	0.98237
45993	1.1431
45994	0.93066
45995	0.81222
45996	1.045
45997	0.86414
45998	1.0236
45999	1.2585
46000	1.4958
46001	1.2882
46002	1.329
46003	1.1108
46004	1.0237
46005	1.4415
46006	1.1981
46007	1.0806
46008	1.7562
46009	2.4509
46010	2.6461
46011	2.1033
46012	2.2744
46013	2.3787
46014	2.1735
46015	1.7237
46016	1.8986
46017	1.3618
46018	1.2386
46019	1.4315
46020	1.7079
46021	2.246
46022	2.9056
46023	2.7026
46024	1.337
46025	1.103
46026	1.1139
46027	1.3741
46028	1.4436
46029	1.8431
46030	1.6092
46031	2.5523
46032	2.3811
46033	1.5552
46034	1.5523
46035	0.54488
46036	0.73941
46037	0.80566
46038	0.69472
46039	1.1586
46040	0.87614
46041	1.189
46042	0.29076
46043	1.1237
46044	0.75039
46045	1.0211
46046	0.61216
46047	0.94434
46048	0.77636
46049	0.37496
46050	0.11127
46051	0.24081
46052	0.38083
46053	0.419
46054	0.57064
46055	0.72098
46056	0.95949
46057	0.98302
46058	1.2884
46059	1.22
46060	1.2357
46061	1.186
46062	0.8954
46063	1.3119
46064	1.3065
46065	1.1807
46066	0.4995
46067	0.63407
46068	0.67541
46069	0.61299
46070	0.46142
46071	0.58268
46072	0.43694
46073	0.49279
46074	0.32556
46075	0.35575
46076	0.68124
46077	0.57672
46078	0.98355
46079	0.916
46080	0.80601
46081	0.96653
46082	0.98155
46083	0.80993
46084	0.67352
46085	0.76673
46086	0.9314
46087	0.58525
46088	0.80471
46089	0.96282
46090	0.46225
46091	0.56935
46092	0.35788
46093	0.48956
46094	0.66758
46095	0.71034
46096	0.32926
46097	0.31995
46098	0.39384
46099	0.38827
46100	1.3794
46101	1.4274
46102	1.4199
46103	1.1608
46104	1.0686
46105	0.92314
46106	1.0688
46107	1.1921
46108	1.0301
46109	1.423
46110	1.2699
46111	1.2685
46112	1.1426
46113	1.0295
46114	1.3406
46115	1.4374
46116	1.4978
46117	0.84403
46118	0.78737
46119	1.8023
46120	2.5199
46121	2.6279
46122	1.9967
46123	1.824
46124	2.2182
46125	1.7876
46126	1.7575
46127	2.2458
46128	2.3223
46129	2.4322
46130	1.8813
46131	1.7455
46132	2.2866
46133	2.3696
46134	1.9668
46135	1.9854
46136	1.7429
46137	1.6145
46138	1.7062
46139	1.2201
46140	1.1012
46141	1.1174
46142	1.6683
46143	1.3914
46144	1.4414
46145	1.2351
46146	1.6665
46147	1.2294
46148	1.1964
46149	1.3158
46150	2.1919
46151	2.0752
46152	1.8483
46153	3.2214
46154	1.6628
46155	1.8453
46156	1.301
46157	1.5262
46158	1.1229
46159	1.4079
46160	2.044
46161	1.1018
46162	1.2159
46163	0.90849
46164	1.045
46165	1.311
46166	1.4948
46167	0.91103
46168	0.96582
46169	0.86267
46170	1.0928
46171	0.79376
46172	0.96808
46173	0.91683
46174	0.95015
46175	0.93328
46176	0.90495
46177	0.97755
46178	0.92759
46179	1.1603
46180	0.39481
46181	0.52917
46182	0.41231
46183	0.6647
46184	0.79965
46185	0.76102
46186	0.37907
46187	0.40285
46188	0.42933
46189	0.43647
46190	0.72214
46191	0.58279
46192	0.38887
46193	0.45041
46194	0.57116
46195	0.58375
46196	0.7911
46197	0.68417
46198	0.63075
46199	0.47648
46200	0.50008
46201	0.59003
46202	0.58038
46203	0.60756
46204	0.56001
46205	0.71312
46206	0.95013
46207	0.62786
46208	1.3391
46209	1.048
46210	0.62615
46211	0.7433
46212	0.87786
46213	1.2193
46214	0.83612
46215	1.3171
46216	1.1723
46217	1.5067
46218	1.3368
46219	0.88685
46220	1.2083
46221	1.3142
46222	1.2181
46223	2.0691
46224	2.0443
46225	1.746
46226	0.93935
46227	1.0853
46228	2.1219
46229	1.6945
46230	1.4122
46231	1.0921
46232	1.6778
46233	0.88918
46234	1.1643
46235	1.1461
46236	1.0174
46237	0.91329
46238	0.9382
46239	0.93025
46240	0.85253
46241	0.81981
46242	1.0073
46243	1.1086
46244	0.81282
46245	0.83266
46246	1.0446
46247	1.1757
46248	1.1416
46249	1.0224
46250	1.1667
46251	1.0783
46252	1.0607
46253	0.85138
46254	1.0004
46255	0.87591
46256	0.80667
46257	0.80502
46258	0.73695
46259	0.98129
46260	1.0526
46261	1.0917
46262	1.0609
46263	1.1021
46264	1.0261
46265	0.90602
46266	0.88921
46267	0.66717
46268	0.74504
46269	1.0514
46270	1.0211
46271	0.90473
46272	0.86347
46273	1.0601
46274	0.89732
46275	1.1173
46276	1.457
46277	0.83839
46278	0.86075
46279	0.79949
46280	0.97072
46281	1.2588
46282	0.92557
46283	1.591
46284	1.1121
46285	0.95687
46286	1.3893
46287	0.89625
46288	1.6021
46289	1.4712
46290	1.2872
46291	1.3075
46292	1.5476
46293	0.31807
46294	0.32054
46295	0.35233
46296	0.2626
46297	0.25839
46298	0.16562
46299	0.20526
46300	0.26451
46301	0.16846
46302	0.15607
46303	0.13314
46304	0.13151
46305	0.11527
46306	1.0766
46307	1.0391
46308	1.0566
46309	0.94681
46310	0.99547
46311	0.99842
46312	0.98654
46313	1.276
46314	1.2888
46315	1.2831
46316	1.7286
46317	1.74
46318	1.7253
46319	1.5499
46320	1.6146
46321	1.7091
46322	1.8788
46323	1.7461
46324	1.8799
46325	1.7969
46326	1.8643
46327	1.8099
46328	1.8756
46329	1.8286
46330	1.7273
46331	0.94299
46332	0.98678
46333	0.85748
46334	0.90205
46335	0.77251
46336	0.92298
46337	0.8114
46338	0.80052
46339	0.70745
46340	0.61424
46341	0.67524
46342	0.73782
46343	0.73718
46344	0.70374
46345	0.77282
46346	0.75145
46347	0.81055
46348	0.70632
46349	0.76355
46350	1.6294
46351	1.659
46352	1.129
46353	0.91974
46354	1.3477
46355	0.96358
46356	1.0505
46357	0.99431
46358	1.1548
46359	1.108
46360	1.6163
46361	1.5057
46362	1.3742
46363	1.2834
46364	1.4206
46365	1.7985
46366	1.7549
46367	1.5869
46368	1.7666
46369	1.5253
46370	1.3881
46371	1.6125
46372	1.7557
46373	1.8174
46374	2.0297
46375	2.3222
46376	2.3182
46377	2.281
46378	2.0494
46379	2.2864
46380	2.1549
46381	2.4461
46382	2.6737
46383	2.4522
46384	2.1769
46385	2.8528
46386	2.7137
46387	3.0377
46388	1.8306
46389	2.0363
46390	1.7556
46391	1.7225
46392	1.7778
46393	1.9813
46394	1.9401
46395	1.9058
46396	2.1119
46397	2.1109
46398	2.307
46399	1.0935
46400	0.79186
46401	0.99948
46402	1.1416
46403	0.60419
46404	1.335
46405	0.89608
46406	1.0534
46407	1.4558
46408	1.1186
46409	0.89099
46410	1.3248
46411	1.3254
46412	5.5548
46413	5.607
46414	5.5268
46415	4.593
46416	5.8016
46417	5.6103
46418	5.3945
46419	5.8742
46420	5.9305
46421	5.8024
46422	5.3182
46423	5.5182
46424	5.9155
46425	5.3736
46426	4.1678
46427	1.164
46428	1.0635
46429	0.84326
46430	1.2256
46431	1.1159
46432	1.0965
46433	0.76725
46434	0.69059
46435	0.69256
46436	1.4089
46437	1.4008
46438	1.0286
46439	1.1376
46440	0.85124
46441	0.80832
46442	0.68503
46443	0.65881
46444	1.4582
46445	4.9525
46446	3.9538
46447	4.6489
46448	3.8098
46449	3.5238
46450	5.1226
46451	4.9235
46452	4.5078
46453	4.6454
46454	4.0922
46455	4.9345
46456	4.9343
46457	4.4771
46458	4.4774
46459	4.4251
46460	4.4265
46461	4.0756
46462	4.076
46463	5.3633
46464	5.7243
46465	5.1963
46466	5.3637
46467	5.7263
46468	5.9281
46469	5.1965
46470	5.3919
46471	5.7721
46472	2.1812
46473	1.8269
46474	1.2678
46475	2.8371
46476	2.2887
46477	1.3649
46478	1.3709
46479	1.1445
46480	1.342
46481	1.8964
46482	2.1934
46483	1.8219
46484	1.2302
46485	1.2241
46486	2.7188
46487	2.0938
46488	1.8633
46489	1.4342
46490	2.8325
46491	0.41722
46492	0.39077
46493	0.67732
46494	0.52971
46495	0.67672
46496	0.56867
46497	0.42256
46498	0.50191
46499	0.37861
46500	0.32319
46501	0.35912
46502	0.25473
46503	0.53142
46504	0.56704
46505	0.4555
46506	0.31379
46507	0.60976
46508	0.6116
46509	0.7643
46510	0.78473
46511	0.72339
46512	2.7823
46513	2.1926
46514	3.3681
46515	2.6291
46516	1.8202
46517	2.6591
46518	2.9024
46519	2.5274
46520	3.2898
46521	3.1599
46522	1.8551
46523	2.0971
46524	1.7296
46525	1.8599
46526	2.1802
46527	1.6877
46528	2.1157
46529	2.4753
46530	2.6953
46531	2.2405
46532	1.9367
46533	2.2771
46534	2.6097
46535	2.3341
46536	1.7461
46537	4.0122
46538	4.2197
46539	4.4906
46540	4.1843
46541	3.5285
46542	3.728
46543	5.1782
46544	4.7801
46545	4.9619
46546	4.1612
46547	5.1016
46548	5.7937
46549	5.0818
46550	5.1829
46551	4.8202
46552	4.7819
46553	1.2571
46554	1.1251
46555	1.2087
46556	1.292
46557	1.2606
46558	1.2608
46559	1.0887
46560	1.2127
46561	1.0783
46562	1.0326
46563	0.89
46564	0.83968
46565	0.95744
46566	1.2179
46567	1.1378
46568	1.254
46569	1.2445
46570	1.1703
46571	1.0438
46572	1.1748
46573	1.0366
46574	0.90787
46575	0.8171
46576	0.79041
46577	0.79325
46578	0.90251
46579	0.8717
46580	0.81765
46581	0.95802
46582	0.97785
46583	0.78279
46584	0.78423
46585	0.95929
46586	0.86157
46587	0.94317
46588	0.84108
46589	0.57916
46590	0.57378
46591	0.64074
46592	0.68521
46593	0.68444
46594	0.40919
46595	0.78926
46596	0.66082
46597	0.60517
46598	0.26802
46599	0.34647
46600	0.51486
46601	0.59895
46602	0.7336
46603	0.63304
46604	0.39591
46605	0.40071
46606	3.8219
46607	3.3098
46608	2.9936
46609	3.7013
46610	2.5322
46611	2.9854
46612	2.5971
46613	3.0366
46614	3.0555
46615	3.3023
46616	3.1214
46617	2.7847
46618	2.4123
46619	2.5892
46620	3.3062
46621	4.5063
46622	4.5311
46623	3.93
46624	4.2434
46625	4.3168
46626	4.7558
46627	4.7133
46628	4.5615
46629	3.9222
46630	4.2302
46631	3.9228
46632	3.9979
46633	3.9516
46634	4.2878
46635	3.9308
46636	4.338
46637	3.9197
46638	4.5997
46639	4.4273
46640	4.8505
46641	4.5534
46642	4.655
46643	4.552
46644	4.1065
46645	4.1044
46646	4.6873
46647	4.3573
46648	3.9811
46649	4.2107
46650	3.8622
46651	3.7314
46652	3.9811
46653	3.7355
46654	11.724
46655	11.692
46656	11.721
46657	11.725
46658	11.69
46659	11.738
46660	11.813
46661	11.741
46662	11.837
46663	11.636
46664	11.829
46665	11.778
46666	11.779
46667	11.631
46668	11.77
46669	11.995
46670	11.827
46671	11.674
46672	11.676
46673	11.564
46674	11.766
46675	11.538
46676	11.608
46677	11.712
46678	11.723
46679	11.181
46680	10.734
46681	11.222
46682	11.363
46683	11.583
46684	12.122
46685	10.67
46686	11.202
46687	10.682
46688	10.667
46689	12.035
46690	11.66
46691	11.211
46692	11.714
46693	11.195
46694	11.578
46695	10.799
46696	10.82
46697	12.092
46698	12.093
46699	12.104
46700	12.226
46701	12.287
46702	12.369
46703	11.926
46704	11.961
46705	11.959
46706	12.283
46707	12.435
46708	3.912
46709	4.179
46710	3.8566
46711	3.6779
46712	4.1621
46713	3.6748
46714	3.598
46715	3.4304
46716	4.5848
46717	4.2788
46718	2.8566
46719	3.282
46720	4.2755
46721	4.4814
46722	4.3174
46723	3.8701
46724	9.1085
46725	8.8116
46726	8.9894
46727	8.8158
46728	8.6667
46729	8.763
46730	8.7114
46731	8.8111
46732	8.738
46733	8.8732
46734	9.2121
46735	8.6186
46736	8.6695
46737	8.5131
46738	8.4144
46739	8.3959
46740	8.1559
46741	8.8345
46742	8.6668
46743	8.4747
46744	8.3419
46745	1.7765
46746	1.924
46747	1.3748
46748	1.4985
46749	1.666
46750	1.5684
46751	2.0302
46752	2.118
46753	2.038
46754	1.981
46755	2.1863
46756	2.291
46757	1.3104
46758	1.7155
46759	2.2653
46760	2.3929
46761	1.7697
46762	1.636
46763	0.67218
46764	0.69113
46765	0.75118
46766	0.91514
46767	1.1269
46768	0.96629
46769	0.82278
46770	0.95991
46771	0.81494
46772	0.91652
46773	0.76227
46774	0.78781
46775	1.051
46776	1.1063
46777	1.1402
46778	1.1307
46779	1.1354
46780	1.0629
46781	1.0667
46782	0.99361
46783	0.94085
46784	0.99444
46785	1.2131
46786	0.92416
46787	0.8861
46788	0.75813
46789	0.81535
46790	0.94562
46791	0.8298
46792	1.0863
46793	0.74028
46794	0.69936
46795	0.60688
46796	0.67945
46797	0.96088
46798	0.78235
46799	0.96532
46800	1.1838
46801	1.0075
46802	0.97425
46803	0.85695
46804	0.77755
46805	0.92831
46806	0.86751
46807	1.2392
46808	0.93008
46809	1.0356
46810	0.74639
46811	0.69107
46812	0.76446
46813	0.74414
46814	1.1997
46815	1.0826
46816	14.052
46817	13.531
46818	13.181
46819	13.568
46820	13.93
46821	12.458
46822	13.367
46823	13.723
46824	13.397
46825	13.253
46826	12.517
46827	12.454
46828	12.514
46829	14.291
46830	13.77
46831	13.632
46832	11.449
46833	11.541
46834	11.396
46835	11.281
46836	11.254
46837	11.444
46838	11.489
46839	11.486
46840	11.487
46841	11.466
46842	11.183
46843	11.279
46844	11.99
46845	12.159
46846	12.214
46847	11.905
46848	12.073
46849	12.282
46850	11.937
46851	11.99
46852	11.969
46853	12.156
46854	11.567
46855	11.558
46856	11.422
46857	11.427
46858	11.632
46859	11.569
46860	11.433
46861	11.633
46862	11.582
46863	11.634
46864	11.356
46865	11.743
46866	11.622
46867	11.638
46868	0.95965
46869	0.77229
46870	0.83953
46871	0.84968
46872	0.77351
46873	0.73821
46874	0.65402
46875	0.86342
46876	0.8522
46877	0.83838
46878	0.98318
46879	0.88297
46880	0.99404
46881	0.93949
46882	0.9301
46883	5.4455
46884	6.9601
46885	6.1468
46886	5.0254
46887	5.3747
46888	5.1749
46889	6.3357
46890	6.5593
46891	5.5455
46892	4.9831
46893	4.6343
46894	5.1209
46895	9.1193
46896	8.492
46897	7.3664
46898	11.241
46899	7.2333
46900	10.573
46901	7.1658
46902	5.04
46903	3.7705
46904	3.6966
46905	3.5198
46906	3.4392
46907	3.456
46908	3.2527
46909	3.254
46910	3.7353
46911	3.7902
46912	3.2455
46913	3.5086
46914	3.565
46915	3.8678
46916	3.7268
46917	3.3225
46918	3.5085
46919	2.14
46920	1.9064
46921	2.2677
46922	2.1446
46923	1.9705
46924	2.1038
46925	2.3088
46926	2.1584
46927	2.3063
46928	2.153
46929	1.938
46930	1.8451
46931	2.2568
46932	1.0034
46933	1.0302
46934	1.0782
46935	1.0278
46936	1.0716
46937	0.95357
46938	2.614
46939	2.3219
46940	1.992
46941	1.6015
46942	1.9774
46943	1.3759
46944	1.2808
46945	1.1836
46946	1.1351
46947	1.7113
46948	1.2978
46949	1.5116
46950	1.3224
46951	1.3463
46952	1.1902
46953	0.33248
46954	0.21054
46955	0.17695
46956	0.47164
46957	0.34423
46958	0.24805
46959	0.28759
46960	0.24151
46961	0.37583
46962	0.10834
46963	0.12051
46964	0.24258
46965	0.20759
46966	2.793
46967	2.3677
46968	2.1425
46969	2.0849
46970	2.0298
46971	2.5457
46972	2.5794
46973	2.011
46974	2.4065
46975	2.2027
46976	2.3409
46977	2.0709
46978	2.27
46979	2.3081
46980	2.3916
46981	2.1378
46982	2.1652
46983	2.1824
46984	2.4063
46985	2.4479
46986	2.5515
46987	2.5868
46988	3.0415
46989	2.279
46990	2.6502
46991	2.6942
46992	3.0245
46993	2.9336
46994	2.547
46995	2.2549
46996	2.3555
46997	0.74972
46998	0.6629
46999	0.63229
47000	0.55955
47001	0.85349
47002	0.80659
47003	0.76807
47004	0.72054
47005	1.224
47006	1.792
47007	1.5281
47008	1.7143
47009	1.8318
47010	1.7397
47011	1.2727
47012	1.7217
47013	1.5795
47014	1.8194
47015	1.8653
47016	1.6972
47017	1.8029
47018	1.4802
47019	1.6557
47020	1.6231
47021	1.304
47022	1.8472
47023	1.6339
47024	1.7967
47025	0.68074
47026	0.69212
47027	0.72949
47028	0.64054
47029	0.80412
47030	0.69249
47031	0.64117
47032	0.54219
47033	0.5034
47034	0.47025
47035	0.5515
47036	0.42646
47037	0.50395
47038	0.62833
47039	0.60142
47040	0.54491
47041	0.56546
47042	0.40975
47043	0.44604
47044	0.31356
47045	0.74388
47046	0.65408
47047	0.68051
47048	0.36105
47049	0.43425
47050	0.8118
47051	0.7892
47052	0.91844
47053	0.8743
47054	0.67562
47055	0.61394
47056	0.92041
47057	0.80202
47058	0.44987
47059	0.49227
47060	0.70498
47061	0.46333
47062	0.31676
47063	0.31226
47064	0.34
47065	0.27672
47066	0.38847
47067	0.49836
47068	0.41244
47069	0.51445
47070	0.16668
47071	0.20195
47072	0.28577
47073	0.15431
47074	0.17857
47075	0.76503
47076	0.75549
47077	0.76929
47078	0.75377
47079	0.84914
47080	0.71442
47081	0.99805
47082	0.97261
47083	1.0288
47084	0.8844
47085	0.86721
47086	0.99825
47087	0.94186
47088	0.31283
47089	0.28444
47090	0.47666
47091	0.22322
47092	0.19028
47093	0.30187
47094	0.34064
47095	0.67745
47096	0.36708
47097	0.46285
47098	0.51426
47099	0.65859
47100	0.56697
47101	0.95196
47102	0.80838
47103	0.93215
47104	0.76995
47105	0.9633
47106	0.74531
47107	0.77264
47108	1.0387
47109	0.78551
47110	0.78316
47111	0.78633
47112	0.83852
47113	0.35036
47114	0.38264
47115	0.31741
47116	0.40711
47117	0.48655
47118	0.22585
47119	0.32936
47120	0.29642
47121	0.1998
47122	0.21357
47123	0.47686
47124	0.48501
47125	0.57855
47126	0.3456
47127	0.37047
47128	0.29924
47129	0.22168
47130	0.22019
47131	0.38401
47132	0.57303
47133	0.69699
47134	0.68075
47135	0.39887
47136	0.3586
47137	0.34396
47138	0.293
47139	0.29226
47140	0.40573
47141	0.52309
47142	0.31966
47143	0.38003
47144	0.26204
47145	0.28761
47146	0.26982
47147	0.31092
47148	0.42221
47149	0.53983
47150	0.51256
47151	0.40257
47152	0.59547
47153	0.59044
47154	0.5368
47155	0.78038
47156	0.78342
47157	0.52297
47158	0.61876
47159	0.5674
47160	0.58051
47161	0.44092
47162	0.38467
47163	0.56427
47164	0.43969
47165	0.79685
47166	0.68219
47167	0.72918
47168	0.66809
47169	0.80793
47170	0.7658
47171	0.83152
47172	0.6613
47173	0.65834
47174	0.79948
47175	0.78223
47176	0.93708
47177	1.0144
47178	0.89091
47179	0.82551
47180	0.84919
47181	0.99028
47182	0.54669
47183	0.72413
47184	0.65978
47185	0.90282
47186	0.93233
47187	0.63036
47188	0.77641
47189	0.75853
47190	0.70944
47191	0.6804
47192	0.60268
47193	0.51508
47194	0.95944
47195	0.99619
47196	0.78411
47197	0.73527
47198	0.85749
47199	1.3938
47200	1.5332
47201	1.1688
47202	1.0929
47203	1.4516
47204	1.1288
47205	1.3239
47206	1.4686
47207	1.2574
47208	1.0826
47209	2.2875
47210	1.6077
47211	1.5433
47212	2.0719
47213	1.7459
47214	1.584
47215	1.8587
47216	2.1451
47217	2.2515
47218	1.6977
47219	1.8634
47220	1.5909
47221	1.6384
47222	1.7076
47223	1.8261
47224	2.1483
47225	2.3228
47226	2.1418
47227	2.058
47228	1.8139
47229	2.1379
47230	1.8167
47231	2.1438
47232	1.6944
47233	1.8376
47234	2.0951
47235	2.1514
47236	2.0982
47237	1.8376
47238	11.615
47239	11.807
47240	11.804
47241	11.638
47242	11.616
47243	11.805
47244	11.807
47245	12.062
47246	11.516
47247	11.628
47248	11.708
47249	11.812
47250	12.066
47251	11.709
47252	11.601
47253	11.725
47254	11.722
47255	11.693
47256	11.689
47257	11.718
47258	11.74
47259	11.812
47260	11.739
47261	11.837
47262	11.991
47263	12.213
47264	12.157
47265	12.072
47266	11.937
47267	12.282
47268	11.969
47269	12.156
47270	11.903
47271	11.987
47272	11.569
47273	11.569
47274	11.432
47275	11.435
47276	11.637
47277	11.576
47278	11.637
47279	11.639
47280	11.637
47281	11.585
47282	11.438
47283	11.364
47284	11.647
47285	11.747
47286	12.525
47287	12.313
47288	12.821
47289	13.022
47290	12.881
47291	12.325
47292	12.525
47293	12.65
47294	13.091
47295	12.819
47296	11.044
47297	11.045
47298	10.989
47299	10.782
47300	10.765
47301	10.639
47302	10.982
47303	11.335
47304	11.336
47305	11.262
47306	10.851
47307	11.223
47308	1.6929
47309	1.9893
47310	1.1644
47311	2.3818
47312	1.8737
47313	1.6829
47314	1.1626
47315	1.1517
47316	1.0086
47317	1.1302
47318	1.4022
47319	1.544
47320	1.854
47321	2.1397
47322	1.5868
47323	2.1076
47324	1.3718
47325	1.4611
47326	11.538
47327	11.543
47328	11.896
47329	11.892
47330	11.538
47331	11.873
47332	12.313
47333	11.257
47334	11.532
47335	11.684
47336	11.949
47337	11.875
47338	12.301
47339	11.684
47340	11.415
47341	11.807
47342	11.637
47343	11.516
47344	11.614
47345	11.616
47346	11.804
47347	11.628
47348	11.601
47349	11.708
47350	11.806
47351	12.061
47352	11.812
47353	11.709
47354	12.066
47355	11.805
47356	12.526
47357	12.82
47358	13.021
47359	12.326
47360	12.88
47361	13.09
47362	12.818
47363	12.522
47364	12.31
47365	12.65
47366	11.036
47367	11.032
47368	10.77
47369	10.977
47370	10.629
47371	10.75
47372	11.254
47373	11.323
47374	10.758
47375	11.326
47376	10.557
47377	10.972
47378	10.84
47379	11.212
47380	13.063
47381	13.484
47382	13.83
47383	13.689
47384	12.717
47385	13.898
47386	13.33
47387	13.481
47388	13.058
47389	12.72
47390	9.8289
47391	10.076
47392	10.509
47393	10.501
47394	9.9705
47395	10.325
47396	9.7572
47397	10.084
47398	11.011
47399	10.921
47400	11.013
47401	10.317
47402	10.04
47403	10.685
47404	11.978
47405	11.435
47406	11.975
47407	11.437
47408	11.45
47409	11.452
47410	11.652
47411	12.084
47412	11.216
47413	11.653
47414	12.558
47415	11.934
47416	11.935
47417	12.528
47418	11.893
47419	11.537
47420	11.538
47421	11.256
47422	11.533
47423	11.541
47424	11.894
47425	12.312
47426	11.874
47427	11.873
47428	11.685
47429	11.416
47430	11.948
47431	11.683
47432	12.3
47433	13.059
47434	13.829
47435	13.483
47436	13.688
47437	12.72
47438	13.898
47439	13.331
47440	12.716
47441	13.061
47442	13.482
47443	9.9875
47444	9.8454
47445	10.521
47446	10.521
47447	10.335
47448	10.057
47449	10.339
47450	10.097
47451	11.027
47452	11.027
47453	10.934
47454	10.698
47455	13.599
47456	14.497
47457	13.109
47458	14.638
47459	14.148
47460	14.011
47461	13.129
47462	13.594
47463	14.145
47464	14.707
47465	9.9988
47466	9.0509
47467	9.1944
47468	9.6933
47469	9.4284
47470	9.2633
47471	10.71
47472	10.596
47473	10.
47474	10.178
47475	9.69
47476	10.709
47477	10.179
47478	12.073
47479	11.352
47480	11.384
47481	11.384
47482	11.344
47483	12.069
47484	10.737
47485	12.815
47486	12.01
47487	12.225
47488	11.627
47489	11.626
47490	11.026
47491	12.01
47492	12.767
47493	11.982
47494	10.997
47495	11.438
47496	11.446
47497	11.46
47498	11.461
47499	11.982
47500	11.225
47501	11.66
47502	12.089
47503	11.658
47504	11.942
47505	12.564
47506	11.941
47507	12.533
47508	13.595
47509	14.637
47510	14.146
47511	13.129
47512	14.497
47513	14.707
47514	14.013
47515	13.107
47516	13.597
47517	14.146
47518	9.9977
47519	9.0511
47520	9.1931
47521	9.6912
47522	9.4283
47523	9.2622
47524	10.72
47525	9.6858
47526	9.997
47527	10.175
47528	10.606
47529	10.72
47530	14.134
47531	15.446
47532	14.81
47533	15.305
47534	13.497
47535	15.514
47536	14.692
47537	13.535
47538	14.128
47539	14.807
47540	8.7587
47541	8.2565
47542	8.3991
47543	9.0435
47544	9.475
47545	9.4736
47546	10.414
47547	10.279
47548	10.413
47549	9.6528
47550	8.4676
47551	9.0366
47552	11.257
47553	12.161
47554	11.307
47555	12.158
47556	10.477
47557	11.248
47558	12.373
47559	11.611
47560	13.067
47561	11.307
47562	11.612
47563	10.847
47564	12.079
47565	12.077
47566	13.
47567	12.07
47568	11.384
47569	11.383
47570	11.344
47571	10.737
47572	11.351
47573	12.071
47574	12.815
47575	12.01
47576	11.036
47577	11.636
47578	11.634
47579	12.231
47580	12.009
47581	12.768
47582	14.13
47583	15.305
47584	15.445
47585	14.808
47586	13.537
47587	14.693
47588	15.514
47589	14.133
47590	13.497
47591	14.809
47592	8.2565
47593	9.4743
47594	8.3983
47595	9.4738
47596	8.7608
47597	9.0424
47598	10.413
47599	9.0375
47600	8.4678
47601	10.279
47602	10.414
47603	9.6517
47604	14.667
47605	16.113
47606	13.946
47607	15.473
47608	16.254
47609	15.374
47610	14.668
47611	13.888
47612	16.323
47613	15.472
47614	7.5717
47615	8.3633
47616	8.9226
47617	7.4302
47618	8.0523
47619	8.916
47620	7.6415
47621	8.0609
47622	9.9225
47623	10.074
47624	7.3589
47625	8.3555
47626	10.076
47627	9.0991
47628	11.231
47629	11.163
47630	12.249
47631	12.247
47632	10.216
47633	11.153
47634	12.146
47635	13.318
47636	11.23
47637	11.587
47638	10.658
47639	12.514
47640	11.588
47641	12.147
47642	13.234
47643	11.293
47644	12.149
47645	12.149
47646	11.242
47647	11.292
47648	11.242
47649	12.066
47650	12.362
47651	11.6
47652	13.056
47653	11.6
47654	10.832
47655	12.99
47656	12.065
47657	14.67
47658	16.114
47659	13.89
47660	16.254
47661	15.473
47662	15.374
47663	13.946
47664	14.666
47665	15.472
47666	16.323
47667	8.9422
47668	8.0765
47669	7.4534
47670	7.5942
47671	8.3866
47672	8.9439
47673	10.082
47674	8.3827
47675	7.3825
47676	7.665
47677	9.9289
47678	10.079
47679	8.0825
47680	9.1201
47681	9.1211
47682	6.6681
47683	7.4212
47684	6.8107
47685	7.746
47686	8.4285
47687	8.4274
47688	6.8795
47689	9.7994
47690	9.6243
47691	9.7996
47692	7.7404
47693	8.6058
47694	15.204
47695	16.135
47696	17.061
47697	14.278
47698	16.92
47699	15.2
47700	14.352
47701	16.053
47702	16.133
47703	17.13
47704	12.342
47705	11.067
47706	11.157
47707	11.157
47708	12.338
47709	9.9559
47710	11.06
47711	11.563
47712	12.656
47713	11.565
47714	10.469
47715	12.246
47716	11.229
47717	11.231
47718	10.215
47719	11.154
47720	11.162
47721	12.248
47722	13.317
47723	12.146
47724	11.575
47725	10.642
47726	12.503
47727	11.573
47728	12.145
47729	13.233
47730	17.061
47731	16.921
47732	14.278
47733	15.204
47734	14.353
47735	15.201
47736	16.135
47737	16.134
47738	17.13
47739	16.054
47740	8.4276
47741	6.81
47742	7.7447
47743	6.6683
47744	6.8795
47745	7.422
47746	9.7991
47747	7.7413
47748	8.4282
47749	8.6044
47750	9.6244
47751	9.8002
47752	15.651
47753	17.778
47754	16.707
47755	17.641
47756	15.65
47757	16.648
47758	16.706
47759	17.845
47760	5.8744
47761	6.7535
47762	7.9057
47763	6.0166
47764	7.0983
47765	7.9069
47766	7.0926
47767	9.492
47768	6.0859
47769	9.4925
47770	9.3047
47771	8.0828
47772	12.338
47773	11.157
47774	11.155
47775	11.062
47776	9.9588
47777	11.068
47778	12.339
47779	12.218
47780	12.217
47781	13.571
47782	10.47
47783	11.567
47784	12.657
47785	11.563
47786	13.469
47787	15.745
47788	17.877
47789	16.805
47790	14.77
47791	17.736
47792	17.948
47793	16.744
47794	14.677
47795	15.748
47796	16.805
47797	5.8745
47798	6.0158
47799	7.9045
47800	7.9047
47801	6.7546
47802	6.0857
47803	7.0929
47804	7.0967
47805	9.3008
47806	9.4952
47807	9.4943
47808	8.0817
47809	12.321
47810	11.143
47811	13.458
47812	10.832
47813	10.831
47814	13.66
47815	12.306
47816	11.017
47817	11.405
47818	10.141
47819	11.405
47820	12.657
47821	1.4322
47822	1.2006
47823	1.8506
47824	0.19803
47825	0.16018
47826	0.64459
47827	0.65019
47828	0.76423
47829	0.69584
47830	3.9213
47831	3.9226
47832	0.47005
47833	0.33006
47834	0.76327
47835	0.85039
47836	0.86695
47837	6.4827
47838	6.4843
47839	3.2938
47840	3.5517
47841	0.88883
47842	0.80143
47843	0.80493
47844	0.97999
47845	1.8337
47846	1.856
47847	1.4626
47848	1.7211
47849	2.3472
47850	1.9938
47851	3.6943
47852	3.5793
47853	0.86704
47854	0.83183
47855	1.6187
47856	1.8278
47857	0.57242
47858	0.57982
47859	0.51887
47860	0.53876
47861	0.70061
47862	0.48537
47863	1.1998
47864	3.702
47865	6.2387e-002
47866	5.286e-002
47867	1.3341
47868	1.4544
47869	3.7482
47870	2.8247
47871	1.6157
47872	1.7167
47873	1.1717
47874	2.6411
47875	1.9095
47876	1.6639
47877	0.6245
47878	0.94652
47879	0.94366
47880	2.5928
47881	1.0758
47882	1.139
47883	3.455
47884	3.2543
47885	2.9599
47886	2.6797
47887	1.0451
47888	0.94825
47889	1.9453
47890	1.6808
47891	4.6498
47892	4.3235
47893	6.1449
47894	0.86187
47895	2.0682
47896	1.6966
47897	0.82992
47898	0.73826
47899	1.7608
47900	5.922e-002
47901	6.8317e-002
47902	0.55974
47903	0.53495
47904	0.61881
47905	0.55895
47906	3.1212
47907	0.8431
47908	0.74826
47909	0.814
47910	0.87815
47911	0.63046
47912	0.68073
47913	0.7203
47914	0.75754
47915	0.89266
47916	0.79859
47917	0.46447
47918	0.45562
47919	1.5804
47920	1.4582
47921	0.26555
47922	0.25002
47923	1.2658
47924	1.9652
47925	2.7562
47926	2.2726
47927	5.4855
47928	6.0756
47929	5.4323
47930	5.8624
47931	5.3668
47932	3.1459
47933	3.0762
47934	3.4458
47935	4.3317
47936	4.3459
47937	4.043
47938	4.0376
47939	3.9578
47940	4.1171
47941	3.0974
47942	3.3093
47943	4.0652
47944	4.4621
47945	7.2923
47946	0.15051
47947	0.11586
47948	4.3005
47949	4.434
47950	3.4009
47951	3.2686
47952	3.7435
47953	3.1973
47954	2.9372
47955	2.7554
47956	3.4304
47957	1.7071
47958	2.6412
47959	2.8011
47960	2.7856
47961	4.5101
47962	5.2023
47963	3.9997
47964	4.5416
47965	3.1421
47966	3.4204
47967	2.899
47968	2.549
47969	2.0167
47970	1.6163
47971	1.254
47972	1.4441
47973	2.1438
47974	2.4759
47975	2.0449
47976	1.9304
47977	2.0273
47978	2.4248
47979	1.9176
47980	1.8149
47981	1.7711
47982	0.30413
47983	6.1932
47984	5.6493
47985	4.4694
47986	4.3674
47987	2.6296
47988	2.4254
47989	6.7387e-002
47990	4.9435e-002
47991	2.7325
47992	2.5971
47993	3.147
47994	2.8882
47995	4.7621
47996	4.427
47997	2.6484
47998	2.7342
47999	3.0176
48000	2.7709
48001	2.5601
48002	0.63958
48003	0.76416
48004	0.35868
48005	0.30953
48006	4.1616
48007	4.2525
48008	3.8114
48009	3.734
48010	7.6984
48011	6.9241
48012	5.8856
48013	8.0904
48014	6.41
48015	1.1112
48016	1.4383
48017	3.5707
48018	3.2679
48019	1.413
48020	1.463
48021	0.77973
48022	1.1297
48023	0.98755
48024	0.86378
48025	0.77988
48026	1.4054
48027	1.3053
48028	0.99362
48029	0.89155
48030	1.2047
48031	1.0454
48032	1.9889
48033	2.3556
48034	1.2621
48035	1.3683
48036	2.8825
48037	2.599
48038	7.2813e-002
48039	0.14128
48040	2.0418
48041	2.3029
48042	0.45452
48043	0.39421
48044	0.9354
48045	0.87131
48046	5.1739
48047	3.6175
48048	1.2052
48049	1.1915
48050	0.85035
48051	0.83803
48052	1.4483
48053	1.5152
48054	2.9387
48055	2.5559
48056	2.3269
48057	0.87466
48058	1.1794
48059	1.8125
48060	1.8318
48061	2.8641
48062	2.3012
48063	1.1636
48064	1.3245
48065	0.69709
48066	0.62178
48067	0.75601
48068	0.84508
48069	4.5575
48070	4.8029
48071	4.2277
48072	4.3191
48073	3.7172
48074	3.4623
48075	2.8798
48076	3.0913
48077	1.3962
48078	1.3719
48079	4.3073
48080	4.7263
48081	1.3735
48082	1.2488
48083	0.93525
48084	1.03
48085	3.0508
48086	3.4858
48087	2.1585
48088	2.4803
48089	1.1641
48090	1.073
48091	1.2019
48092	0.34341
48093	0.31728
48094	1.8318
48095	1.2886
48096	2.0974
48097	2.3165
48098	0.84766
48099	1.0191
48100	6.0431
48101	5.7836
48102	1.9722
48103	2.2321
48104	4.536
48105	4.4337
48106	4.8363
48107	4.8132
48108	4.7672
48109	4.8035
48110	4.7085
48111	4.8345
48112	5.3527
48113	5.7129
48114	3.4847
48115	3.1831
48116	3.7633
48117	3.1575
48118	5.0477
48119	5.2307
48120	4.4522
48121	4.2904
48122	4.5626
48123	4.428
48124	4.7143
48125	4.2813
48126	4.535
48127	4.3957
48128	4.7327
48129	4.7214
48130	4.6409
48131	4.9941
48132	5.0197
48133	5.1339
48134	4.5279
48135	4.1636
48136	4.1688
48137	4.6892
48138	4.3618
48139	5.0747
48140	4.9241
48141	4.5408
48142	4.6099
48143	2.5593
48144	2.6213
48145	4.8281
48146	4.7355
48147	4.4812
48148	4.5057
48149	4.8863
48150	4.8502
48151	4.9642
48152	5.6083
48153	3.959
48154	3.9653
48155	5.2903
48156	4.6958
48157	4.6026
48158	4.6814
48159	4.4862
48160	4.3037
48161	4.8734
48162	4.202
48163	4.6136
48164	4.7104
48165	4.6066
48166	4.7332
48167	6.6264
48168	6.8356
48169	4.5659
48170	4.6858
48171	4.6576
48172	4.5589
48173	4.5815
48174	4.568
48175	4.1334
48176	4.1606
48177	4.4725
48178	4.3191
48179	4.0977
48180	4.0324
48181	4.6586
48182	4.8186
48183	6.3989
48184	6.6646
48185	4.4625
48186	4.5645
48187	2.5757
48188	2.8146
48189	4.6502
48190	4.5264
48191	4.3645
48192	4.5713
48193	4.6358
48194	4.7455
48195	4.6132
48196	4.4336
48197	4.5771
48198	4.5141
48199	5.9034
48200	5.6172
48201	4.523
48202	3.8757
48203	4.3512
48204	4.572
48205	4.6109
48206	4.6277
48207	4.5821
48208	4.4285
48209	2.8977
48210	2.7912
48211	2.5852
48212	2.6993
48213	4.6025
48214	4.4558
48215	4.9589
48216	4.9172
48217	2.8228
48218	2.8745
48219	4.7746
48220	4.9349
48221	4.6294
48222	5.1686
48223	4.7956
48224	4.7354
48225	4.3507
48226	4.1315
48227	4.347
48228	4.3699
48229	4.2705
48230	4.0596
48231	4.5996
48232	4.4739
48233	4.5609
48234	4.6776
48235	4.9329
48236	4.438
48237	4.3943
48238	4.1313
48239	4.1992
48240	4.2345
48241	4.0401
48242	4.1132
48243	5.1316
48244	3.9588
48245	7.0953
48246	5.0255
48247	5.7581
48248	5.1233
48249	5.5283
48250	6.4253
48251	6.7838
48252	2.5608
48253	2.6475
48254	6.55
48255	4.0463
48256	4.0012
48257	3.9262
48258	4.2299
48259	5.5624
48260	5.3589
48261	4.0045
48262	4.1581
48263	4.1087
48264	4.9864
48265	5.1771
48266	5.3321
48267	5.4864
48268	5.793
48269	5.8412
48270	4.2781
48271	4.586
48272	5.21
48273	4.9618
48274	2.1659
48275	2.1904
48276	5.032
48277	4.8529
48278	6.6044
48279	6.5381
48280	4.5016
48281	4.3503
48282	4.671
48283	4.6776
48284	6.2892
48285	6.4528
48286	6.3887
48287	6.7706
48288	5.6216
48289	4.9602
48290	5.5257
48291	5.2075
48292	6.64
48293	7.0008
48294	4.2812
48295	4.2276
48296	4.743
48297	5.0473
48298	4.8873
48299	5.5451
48300	6.3376
48301	4.0734
48302	4.0698
48303	7.0667
48304	7.2618
48305	4.7448
48306	4.8527
48307	7.6519
48308	7.064
48309	0.19255
48310	0.21745
48311	4.7413
48312	4.7072
48313	4.2665
48314	4.0284
48315	4.3333
48316	4.1377
48317	2.6454
48318	2.7328
48319	1.9665
48320	1.8267
48321	5.1925
48322	4.5612
48323	2.5621
48324	3.3447
48325	3.3465
48326	4.0983
48327	4.3115
48328	7.1576
48329	4.5744
48330	4.5417
48331	6.0607
48332	5.7434
48333	2.7684
48334	3.0646
48335	4.0735
48336	4.0792
48337	6.7726
48338	7.0217
48339	3.266e-002
48340	0.12439
48341	4.4608
48342	4.9283
48343	2.7625
48344	2.8811
48345	3.3337
48346	3.52
48347	4.4144
48348	4.0873
48349	4.3294
48350	4.0642
48351	0.78426
48352	2.8664
48353	3.2504
48354	3.445
48355	2.7632
48356	4.1081
48357	4.0893
48358	4.4838
48359	4.4675
48360	0.4849
48361	0.38815
48362	2.9797
48363	3.0258
48364	4.2729
48365	3.7502
48366	3.4731
48367	2.5843
48368	3.2405
48369	2.7024
48370	2.7472
48371	2.8208
48372	2.8112
48373	4.3424
48374	4.3735
48375	7.5485
48376	7.9363
48377	2.7082
48378	2.8601
48379	2.2015
48380	2.7451
48381	2.6164
48382	2.5353
48383	3.7702
48384	4.6147
48385	2.8454
48386	2.6371
48387	3.9497
48388	4.6965
48389	4.4238
48390	3.9227
48391	3.5154
48392	3.8087
48393	2.5926
48394	2.6933
48395	6.5031
48396	6.5195
48397	2.9332
48398	2.8448
48399	9.9746e-002
48400	2.604
48401	2.6941
48402	2.6826
48403	2.5878
48404	6.8229
48405	6.8993
48406	2.6357
48407	2.5602
48408	4.7278
48409	4.7951
48410	2.5607
48411	2.6712
48412	0.4408
48413	0.38197
48414	6.2068
48415	2.1857
48416	2.1428
48417	4.3505
48418	4.7616
48419	4.8026
48420	0.26013
48421	4.9942
48422	4.6188
48423	2.7128e-002
48424	4.0289e-002
48425	4.3536
48426	3.9856
48427	2.7719
48428	2.5779
48429	3.4327
48430	3.2724
48431	4.5333
48432	4.4241
48433	6.7789
48434	6.6286
48435	4.2035
48436	4.5452
48437	4.8014
48438	4.1125
48439	4.0918
48440	4.103
48441	5.4221
48442	4.8221
48443	4.6102
48444	4.6456
48445	2.5895
48446	3.3889
48447	2.7466
48448	2.5983
48449	0.34159
48450	0.26702
48451	0.54785
48452	0.50942
48453	0.75514
48454	0.82145
48455	1.8001
48456	2.4388
48457	1.5042
48458	1.567
48459	4.256
48460	4.6501
48461	4.8127
48462	4.8005
48463	4.9828
48464	4.8348
48465	0.27601
48466	0.3498
48467	6.9038
48468	2.7413
48469	2.8028
48470	5.435
48471	5.0247
48472	0.61171
48473	0.6145
48474	0.11341
48475	0.13671
48476	3.4975
48477	3.3366
48478	3.1919
48479	2.8956
48480	2.8002
48481	2.8838
48482	5.0383
48483	5.6506
48484	5.8988
48485	7.0813
48486	7.1567
48487	0.52567
48488	0.44879
48489	3.2489
48490	3.1238
48491	3.4815
48492	3.3403
48493	3.1995
48494	3.3447
48495	2.3452
48496	2.425
48497	5.9579
48498	5.498
48499	5.9452
48500	5.7264
48501	5.5509
48502	3.461
48503	3.7782
48504	8.6418e-002
48505	7.0624e-002
48506	0.96165
48507	0.92337
48508	0.71259
48509	1.7874
48510	1.1826
48511	1.9547
48512	2.3243
48513	2.8133
48514	2.6018
48515	2.2002
48516	4.1702
48517	3.6535
48518	5.6755
48519	3.8684
48520	3.5263
48521	2.9525
48522	3.0979
48523	5.4191
48524	4.8338
48525	0.43301
48526	0.37211
48527	5.563
48528	4.463e-002
48529	1.9806e-002
48530	2.331
48531	2.3484
48532	1.3365
48533	1.3613
48534	4.2893
48535	5.5003
48536	4.1958
48537	4.2306
48538	3.2205
48539	3.1039
48540	0.43412
48541	0.5286
48542	2.5605
48543	2.576
48544	4.2831
48545	4.3858
48546	9.2733
48547	8.0509
48548	1.1258
48549	1.1064
48550	3.8533e-002
48551	2.6774e-002
48552	0.37483
48553	0.54079
48554	4.0468
48555	4.5201
48556	4.8587
48557	2.4419
48558	2.5494
48559	4.916
48560	4.4586
48561	0.22699
48562	0.25642
48563	1.66
48564	1.8537
48565	2.6703
48566	3.012
48567	6.156
48568	5.8072
48569	2.1349
48570	1.9949
48571	5.1945
48572	5.4301
48573	3.0461
48574	3.157
48575	3.4764
48576	3.3416
48577	6.2029
48578	3.6917
48579	4.254
48580	2.8597
48581	3.0916
48582	3.0819
48583	3.1557
48584	4.7159
48585	4.9482
48586	4.2357
48587	4.3011
48588	3.5029
48589	3.5924
48590	2.9827
48591	3.1071
48592	2.6888
48593	2.7417
48594	1.3751
48595	1.4666
48596	2.7532
48597	4.4688
48598	4.133
48599	2.6935
48600	2.5572
48601	2.4453
48602	6.2017
48603	3.9964
48604	3.7132
48605	0.41445
48606	0.34494
48607	2.5364
48608	2.6334
48609	2.7755
48610	0.31239
48611	0.35781
48612	2.7473
48613	2.5933
48614	4.5415
48615	4.584
48616	4.3851
48617	4.4143
48618	2.9613
48619	2.5981
48620	2.1697
48621	1.7931
48622	3.3227
48623	3.5086
48624	6.1367
48625	6.2631
48626	7.2584
48627	7.2437
48628	4.8742
48629	4.0741
48630	3.0433
48631	3.0101
48632	4.2009
48633	0.38398
48634	0.43867
48635	8.2457
48636	6.9123
48637	4.001
48638	4.2902
48639	2.8443
48640	4.7491
48641	4.213
48642	0.78735
48643	0.8118
48644	3.8646
48645	3.2506
48646	3.2971
48647	2.9754
48648	2.9954
48649	5.2291
48650	3.1379
48651	3.4504
48652	2.2983e-002
48653	2.658e-002
48654	3.7905
48655	1.9606
48656	2.8268
48657	1.55
48658	1.6022
48659	2.4724
48660	2.4482
48661	3.8768
48662	3.7572
48663	2.8251
48664	2.721
48665	4.1361
48666	4.8047
48667	4.4101
48668	4.3014
48669	3.0158
48670	0.96934
48671	0.53771
48672	0.23852
48673	0.15369
48674	0.28499
48675	3.1583
48676	3.346
48677	1.2448
48678	1.4529
48679	4.4385
48680	3.9531
48681	2.1191
48682	2.4202
48683	1.2575
48684	2.6025
48685	2.8222
48686	2.0411
48687	2.2807
48688	0.54884
48689	0.57605
48690	0.47279
48691	0.38678
48692	3.7961
48693	2.7726
48694	2.0705
48695	2.0023
48696	4.4248
48697	4.5837
48698	0.54265
48699	0.5363
48700	1.0797
48701	1.121
48702	8.833e-002
48703	7.4258e-002
48704	2.7991
48705	3.2353
48706	4.6141
48707	4.7174
48708	2.8557
48709	2.6461
48710	7.0744
48711	7.1528
48712	1.8823
48713	2.6228
48714	2.6439
48715	0.28722
48716	0.3564
48717	1.5241
48718	1.5821
48719	4.4362
48720	4.091
48721	8.0008
48722	9.7749
48723	2.6748
48724	3.0202
48725	2.6247
48726	0.22706
48727	0.18473
48728	0.20406
48729	0.68675
48730	0.796
48731	2.6172
48732	3.2616
48733	4.4637
48734	2.8132
48735	2.6201
48736	2.1775
48737	1.7507
48738	1.1656
48739	1.0954
48740	1.5707
48741	1.8226
48742	8.2119
48743	6.7949
48744	4.3481
48745	0.80864
48746	5.8413
48747	5.562
48748	0.53376
48749	0.57201
48750	1.0501
48751	0.94236
48752	0.96
48753	6.3917
48754	6.9178
48755	6.5761
48756	0.71122
48757	0.76998
48758	5.5406
48759	6.0581
48760	5.4017
48761	5.191
48762	4.9229
48763	2.9009
48764	2.7584
48765	4.693
48766	5.3132
48767	7.7836
48768	7.5898
48769	5.8629
48770	9.3596
48771	4.8363
48772	4.5108
48773	3.8885
48774	6.2907
48775	6.1481
48776	0.63113
48777	3.2728
48778	3.5758
48779	5.2581
48780	5.839
48781	5.0193
48782	5.5086
48783	5.5181
48784	5.2848
48785	2.9941
48786	3.3838
48787	2.4274
48788	2.4238
48789	6.0162
48790	5.3066
48791	3.7367
48792	4.2839
48793	14.646
48794	14.15
48795	3.9494
48796	4.7027
48797	7.477
48798	5.7884
48799	2.0222e-002
48800	4.1413e-002
48801	3.7077
48802	4.1049
48803	2.128
48804	2.1252
48805	0.45696
48806	0.45341
48807	0.2807
48808	0.22923
48809	0.47132
48810	0.47291
48811	0.66125
48812	0.6578
48813	2.8718
48814	2.8429
48815	3.0114
48816	3.0307
48817	4.6808
48818	4.8559
48819	0.93819
48820	0.8841
48821	2.9282
48822	3.5408
48823	2.5718e-002
48824	3.3274e-002
48825	2.6235
48826	3.6195
48827	1.6668
48828	1.8816
48829	0.75279
48830	0.6738
48831	3.1931
48832	3.5593
48833	2.9204
48834	3.0982
48835	0.79259
48836	1.0853
48837	2.3486
48838	2.5109
48839	1.2577
48840	1.0525
48841	0.92736
48842	1.0031
48843	0.6253
48844	0.59137
48845	3.1988
48846	2.3576
48847	3.5793
48848	3.2869
48849	3.1835
48850	3.1178
48851	4.6842
48852	4.3192
48853	0.39569
48854	0.34151
48855	1.1321
48856	1.041
48857	6.356
48858	5.5874
48859	0.73148
48860	0.8544
48861	0.37344
48862	0.2691
48863	0.67713
48864	0.8817
48865	4.7567
48866	4.4657
48867	0.75143
48868	0.71619
48869	8.7078
48870	8.9518
48871	4.9183
48872	4.7217
48873	3.0506
48874	3.5363
48875	2.7286
48876	2.7308
48877	2.8294
48878	2.8529
48879	3.1209
48880	2.9938
48881	3.4906
48882	0.36472
48883	0.3842
48884	0.39564
48885	0.39671
48886	3.5304
48887	4.0372
48888	4.3191
48889	3.6283
48890	3.2477
48891	3.7957
48892	3.8798
48893	5.2524
48894	4.7426
48895	1.0944
48896	1.0553
48897	2.0165
48898	2.1828
48899	1.4039
48900	1.6123
48901	2.6772
48902	3.0996
48903	3.8038e-002
48904	2.905e-002
48905	2.5624
48906	2.7536
48907	12.7
48908	12.271
48909	17.017
48910	21.086
48911	14.771
48912	14.89
48913	12.114
48914	11.342
48915	1.4054
48916	1.3113
48917	2.3539
48918	2.6321
48919	2.9297
48920	3.7948
48921	0.60648
48922	0.56814
48923	7.1944
48924	7.2864
48925	3.2376
48926	3.9857
48927	2.7379
48928	3.4562
48929	2.1177
48930	2.3213
48931	3.9722
48932	4.3429
48933	3.7761
48934	4.0782
48935	1.0456
48936	1.1809
48937	1.5527
48938	2.0462
48939	1.5997
48940	1.4045
48941	1.1258
48942	0.97246
48943	4.8696
48944	5.0488
48945	0.58961
48946	0.4852
48947	0.51588
48948	0.6221
48949	4.7014
48950	5.3912
48951	3.5051
48952	4.0827
48953	4.2423
48954	4.3878
48955	0.74382
48956	0.86445
48957	3.4734
48958	4.1036
48959	1.2689
48960	1.1857
48961	1.2764
48962	1.5317
48963	1.6958
48964	1.9151
48965	2.206
48966	2.813
48967	2.4424
48968	2.033
48969	0.63712
48970	0.61749
48971	3.2379
48972	2.9366
48973	3.2708
48974	3.2472
48975	3.4399
48976	3.5387
48977	3.5427
48978	3.6171
48979	4.5946
48980	5.0944
48981	10.414
48982	10.238
48983	9.4096
48984	4.4741
48985	1.9811
48986	2.1714
48987	2.756
48988	2.4205
48989	0.7964
48990	0.90835
48991	8.3716
48992	9.0914
48993	7.6451
48994	7.4861
48995	0.85931
48996	0.97803
48997	3.4349
48998	4.1158
48999	3.7259
49000	3.3277
49001	3.0521
49002	3.2934
49003	0.90036
49004	0.92001
49005	1.0044
49006	0.92173
49007	3.5674
49008	2.4136
49009	2.2066
49010	0.65134
49011	0.73517
49012	2.0084
49013	2.0419
49014	0.4788
49015	0.55586
49016	1.196
49017	1.2086
49018	1.8568
49019	2.2142
49020	3.8571
49021	3.9868
49022	3.783
49023	3.8875
49024	3.2062
49025	3.7517
49026	3.1161
49027	3.4216
49028	3.738
49029	3.7643
49030	4.2015
49031	3.6927
49032	4.2726
49033	4.5405
49034	0.33818
49035	0.48058
49036	0.2218
49037	0.2207
49038	3.0687
49039	4.175
49040	1.6402
49041	1.8451
49042	1.9822
49043	1.8391
49044	0.71432
49045	0.61628
49046	2.1478
49047	2.5767
49048	3.9045
49049	2.523
49050	2.7323
49051	2.9967
49052	3.2539
49053	6.7489
49054	6.7283
49055	3.5936
49056	4.1309
49057	0.49724
49058	0.46187
49059	1.9859
49060	2.3089
49061	0.74216
49062	0.79456
49063	1.0602
49064	1.5329
49065	1.8554
49066	1.5355
49067	5.6527
49068	6.9242
49069	1.7586
49070	1.5607
49071	1.3924
49072	1.6195
49073	1.0534
49074	1.0426
49075	2.9459
49076	3.5265
49077	3.1414
49078	0.17516
49079	0.1529
49080	1.8943
49081	1.9634
49082	2.9492
49083	2.3744
49084	2.6153
49085	2.811
49086	4.5064
49087	4.2904
49088	4.5587
49089	0.81073
49090	0.82533
49091	1.1598
49092	1.134
49093	1.5076
49094	1.4058
49095	1.0263
49096	1.197
49097	0.97445
49098	0.90667
49099	2.6622
49100	3.0067
49101	1.7252
49102	1.9887
49103	0.79245
49104	0.84093
49105	0.74425
49106	0.90899
49107	0.55031
49108	0.59731
49109	2.7051
49110	2.5437
49111	6.3715
49112	6.1659
49113	5.1961
49114	5.2901
49115	0.4296
49116	0.36439
49117	0.89274
49118	0.92531
49119	4.2963
49120	4.6875
49121	1.0497
49122	1.0858
49123	0.25247
49124	0.12313
49125	0.77096
49126	0.82918
49127	0.63563
49128	0.63865
49129	0.70743
49130	0.70922
49131	8.5769
49132	8.5706
49133	6.4307
49134	8.1043
49135	4.9543
49136	5.1865
49137	3.639
49138	2.9562
49139	0.6385
49140	0.7499
49141	1.2922
49142	1.2493
49143	1.5537
49144	1.7251
49145	1.0337
49146	1.1087
49147	1.3958
49148	1.4909
49149	1.1204
49150	1.0205
49151	1.0232
49152	1.1462
49153	5.3516
49154	4.5779
49155	6.0549
49156	5.9919
49157	5.6773
49158	5.2715
49159	0.27761
49160	0.254
49161	3.5606
49162	2.9872
49163	8.4284
49164	6.9046
49165	4.9505
49166	4.421
49167	0.95073
49168	1.054
49169	1.5731
49170	1.6464
49171	3.3528
49172	3.263
49173	0.78684
49174	0.7887
49175	0.87142
49176	1.0397
49177	4.1866
49178	4.5774
49179	5.1876
49180	5.3479
49181	4.0483
49182	3.6702
49183	0.63073
49184	0.56635
49185	1.2863
49186	1.2678
49187	2.9193
49188	2.8893
49189	6.0158
49190	6.4186
49191	0.64814
49192	0.66634
49193	2.6772
49194	2.7297
49195	9.7318
49196	10.273
49197	0.68637
49198	0.967
49199	3.4811
49200	3.2138
49201	0.13918
49202	8.3462e-002
49203	0.25513
49204	0.29674
49205	0.8762
49206	0.8782
49207	0.7136
49208	0.67848
49209	3.3188
49210	3.1938
49211	2.3365
49212	1.9605
49213	8.8428
49214	10.647
49215	2.9303
49216	3.1923
49217	1.1769
49218	1.4052
49219	3.973
49220	5.2508
49221	3.7329
49222	4.7954
49223	0.92387
49224	1.0872
49225	0.52702
49226	0.37943
49227	0.24654
49228	0.22482
49229	0.25916
49230	0.27574
49231	0.11666
49232	6.5633e-002
49233	3.093
49234	3.1588
49235	3.8331
49236	4.4179
49237	3.4773
49238	3.6716
49239	2.8961
49240	2.7314
49241	0.23671
49242	0.26463
49243	5.6246e-002
49244	2.2807e-002
49245	3.006
49246	2.5382
49247	2.8189
49248	2.7897
49249	3.8822
49250	4.5536
49251	2.5976
49252	2.6823
49253	5.4695
49254	2.5959
49255	2.2543
49256	7.7338
49257	8.4825
49258	12.28
49259	8.9314
49260	6.6428
49261	6.7864
49262	8.1278
49263	9.9154
49264	0.92476
49265	1.0053
49266	2.4415
49267	2.6258
49268	2.8097
49269	2.6061
49270	3.4781
49271	4.3589
49272	2.4869
49273	2.3857
49274	1.5927
49275	1.4603
49276	1.8872
49277	1.6792
49278	3.9544
49279	1.0785
49280	1.1044
49281	0.65324
49282	0.58331
49283	0.74737
49284	0.77863
49285	0.75127
49286	0.79276
49287	3.5588
49288	3.9592
49289	2.2278
49290	2.9305
49291	1.5769
49292	1.8127
49293	3.393
49294	3.9932
49295	9.1839
49296	10.331
49297	5.9822
49298	6.4438
49299	6.3745
49300	7.2513
49301	5.9351
49302	6.4193
49303	4.7381
49304	4.6933
49305	4.878
49306	5.1138
49307	2.2372
49308	2.8323
49309	3.7512e-002
49310	2.7599e-002
49311	2.299e-002
49312	1.4369e-002
49313	7.1075
49314	7.2556
49315	0.25856
49316	0.26249
49317	0.13829
49318	0.1791
49319	6.7184e-002
49320	5.1619e-002
49321	0.78124
49322	0.90062
49323	1.1645
49324	1.0771
49325	7.3209
49326	6.4144
49327	12.812
49328	12.194
49329	12.146
49330	12.312
49331	12.303
49332	11.29
49333	6.0128
49334	6.5241
49335	1.0173
49336	1.0515
49337	0.27411
49338	0.293
49339	0.16946
49340	0.18158
49341	0.51967
49342	0.46415
49343	0.60143
49344	0.64622
49345	0.81679
49346	0.95123
49347	0.78231
49348	0.70542
49349	3.3978
49350	3.8814
49351	0.275
49352	0.16437
49353	0.69282
49354	0.87972
49355	0.53238
49356	0.70235
49357	0.29523
49358	0.26447
49359	3.3548
49360	2.6974
49361	3.3608
49362	3.3162
49363	3.0984
49364	4.2392
49365	3.1156
49366	5.4296
49367	4.6543
49368	7.0258e-002
49369	0.13454
49370	6.4164
49371	5.9253
49372	5.8935
49373	5.4039
49374	5.3394
49375	6.2791
49376	6.1497
49377	1.9973
49378	1.7916
49379	1.8341
49380	2.2103
49381	0.95174
49382	0.77259
49383	6.6073
49384	7.186
49385	5.8822
49386	5.703
49387	2.5666
49388	3.3206
49389	2.8795
49390	2.7629
49391	3.6219
49392	8.6272
49393	8.5564
49394	4.849
49395	4.6608
49396	2.1747
49397	2.61
49398	4.6013
49399	5.6056
49400	1.6255
49401	1.7557
49402	1.5618
49403	1.5385
49404	0.92927
49405	1.0559
49406	2.6019
49407	3.0839
49408	3.225
49409	3.7526
49410	3.1728
49411	4.2334
49412	0.61881
49413	0.60726
49414	0.94287
49415	1.061
49416	0.79656
49417	0.91995
49418	0.31023
49419	0.33923
49420	0.51425
49421	2.8271
49422	3.8494
49423	0.19286
49424	0.31518
49425	3.2236
49426	3.5105
49427	3.0751
49428	0.91955
49429	0.73917
49430	1.7699
49431	1.2226
49432	0.4412
49433	0.43032
49434	0.7833
49435	0.62787
49436	0.27085
49437	0.19819
49438	0.9163
49439	1.0102
49440	0.76905
49441	0.77795
49442	2.4756
49443	2.4523
49444	3.8696
49445	3.6811
49446	12.533
49447	12.532
49448	1.8125
49449	1.7274
49450	2.7779
49451	2.5783
49452	1.3322
49453	1.998
49454	1.6592
49455	1.4915
49456	0.9484
49457	1.0895
49458	1.0375
49459	1.1894
49460	0.73211
49461	0.75501
49462	0.12127
49463	9.4687e-002
49464	7.8397e-002
49465	7.5022e-002
49466	1.4611
49467	1.5079
49468	3.2451
49469	2.5179
49470	4.3597
49471	4.9356
49472	5.6912
49473	5.0611
49474	3.9454
49475	3.8109
49476	5.8229
49477	5.6506
49478	3.2641
49479	2.9518
49480	2.8645
49481	3.2955
49482	3.1948
49483	1.171
49484	1.1919
49485	2.111
49486	2.1187
49487	2.2565
49488	2.2418
49489	9.2537
49490	9.2799
49491	0.71103
49492	0.73441
49493	5.6084
49494	0.9055
49495	0.88488
49496	0.14272
49497	0.15248
49498	1.8806
49499	1.5468
49500	0.68592
49501	0.82959
49502	0.20716
49503	0.30771
49504	0.54854
49505	0.62259
49506	3.0183
49507	3.7319
49508	0.2638
49509	0.29933
49510	0.5101
49511	0.55545
49512	4.6369
49513	4.4528
49514	2.9672
49515	1.8049
49516	5.1185
49517	3.6165
49518	3.3381
49519	4.4107
49520	4.9806
49521	5.0552
49522	5.5028
49523	5.8533
49524	6.568
49525	6.4551
49526	3.7755
49527	3.6469
49528	10.313
49529	9.1653
49530	0.35047
49531	0.25107
49532	0.16797
49533	0.18247
49534	0.15735
49535	0.1309
49536	1.0134
49537	0.87782
49538	2.6673
49539	2.7856
49540	3.344
49541	3.0308
49542	3.0061
49543	2.9231
49544	2.5051
49545	2.5826
49546	2.0981
49547	2.8634
49548	1.6305
49549	1.3986
49550	0.38398
49551	0.5807
49552	0.64269
49553	0.74247
49554	3.3285
49555	4.742
49556	2.5752
49557	2.2682
49558	3.6878
49559	4.1072
49560	1.6801
49561	1.2941
49562	2.3869
49563	2.1418
49564	0.10825
49565	5.6289e-002
49566	0.18569
49567	20.998
49568	17.296
49569	14.707
49570	15.426
49571	9.3236
49572	10.001
49573	8.0296
49574	7.7022
49575	3.9605
49576	3.7704
49577	3.3383
49578	3.0677
49579	10.032
49580	10.878
49581	6.0914
49582	6.3937
49583	6.8351
49584	6.3678
49585	6.4358
49586	6.1164
49587	2.5178
49588	2.3464
49589	3.1447
49590	3.4947
49591	1.9385
49592	2.304
49593	2.0763
49594	2.353
49595	2.1749
49596	2.0315
49597	1.7925
49598	1.6557
49599	7.0917e-002
49600	0.11276
49601	0.35539
49602	0.41856
49603	0.17974
49604	0.15401
49605	3.8158
49606	1.9241
49607	1.6478
49608	0.99025
49609	1.0147
49610	0.7555
49611	0.61531
49612	1.251
49613	0.93693
49614	2.8077e-002
49615	2.2993e-002
49616	2.5326e-002
49617	3.787e-002
49618	1.4692e-002
49619	7.8312e-002
49620	3.1291e-002
49621	1.4943e-002
49622	2.3345e-002
49623	1.66
49624	1.8195
49625	1.3246
49626	1.1817
49627	1.5599
49628	1.5126
49629	0.11743
49630	0.13603
49631	1.9568
49632	2.116
49633	1.0686
49634	0.83389
49635	0.86158
49636	1.2464
49637	4.824
49638	5.1286
49639	12.214
49640	12.434
49641	12.559
49642	13.786
49643	0.7095
49644	0.62739
49645	1.482
49646	1.5548
49647	11.258
49648	11.774
49649	12.667
49650	12.845
49651	12.587
49652	10.313
49653	0.24974
49654	0.17464
49655	0.17179
49656	0.18333
49657	9.7978
49658	10.265
49659	2.0891
49660	1.9666
49661	1.2029
49662	1.0322
49663	0.50067
49664	0.46396
49665	0.33626
49666	0.24298
49667	1.5372
49668	1.4491
49669	1.5448
49670	1.7291
49671	6.3651
49672	5.4025
49673	5.3367
49674	0.97308
49675	0.87282
49676	0.78827
49677	0.76645
49678	1.4925
49679	1.4392
49680	1.8626
49681	1.9894
49682	1.6992
49683	1.5916
49684	0.23843
49685	0.26725
49686	0.34975
49687	0.43898
49688	5.3919e-002
49689	2.3216e-002
49690	2.1671
49691	1.7494
49692	3.5937
49693	3.8468
49694	0.59857
49695	0.65294
49696	0.79987
49697	0.76902
49698	0.48378
49699	0.48331
49700	0.69839
49701	0.75231
49702	6.321
49703	7.0613
49704	0.4759
49705	0.46249
49706	0.2807
49707	0.18714
49708	0.61988
49709	0.69799
49710	1.0145
49711	0.9897
49712	0.16713
49713	0.15484
49714	1.164
49715	1.2138
49716	1.2103
49717	1.2758
49718	7.7624
49719	7.958
49720	3.5074
49721	3.1423
49722	3.8048
49723	3.8166
49724	6.8225
49725	6.3801
49726	6.4352
49727	6.7852
49728	2.485
49729	2.1284
49730	2.1381
49731	1.8919
49732	15.518
49733	16.752
49734	17.169
49735	20.99
49736	17.185
49737	20.975
49738	4.0132
49739	4.3611
49740	8.7467
49741	8.6886
49742	11.364
49743	11.51
49744	9.4833
49745	10.286
49746	6.004
49747	5.9405
49748	6.3111
49749	6.7602
49750	6.4579
49751	5.8349
49752	5.6186
49753	6.0229
49754	2.7715
49755	2.729
49756	1.7098
49757	1.933
49758	0.43641
49759	0.45459
49760	0.61932
49761	0.50265
49762	3.7699
49763	4.1771
49764	2.266
49765	2.1942
49766	1.002
49767	0.89471
49768	0.5192
49769	0.39106
49770	0.82784
49771	0.6571
49772	6.7778
49773	6.3318
49774	5.9503
49775	6.0139
49776	1.2097
49777	1.26
49778	3.2313
49779	4.05
49780	3.8115
49781	5.1199
49782	0.91965
49783	1.1065
49784	0.67115
49785	0.73423
49786	0.73832
49787	0.72024
49788	2.7004
49789	2.9034
49790	3.7104
49791	3.3793
49792	4.8682
49793	5.3296
49794	4.2475
49795	4.1961
49796	2.8886
49797	2.8618
49798	0.23616
49799	0.24347
49800	0.11634
49801	0.10878
49802	0.61998
49803	0.74997
49804	2.0322
49805	2.3318
49806	1.2644
49807	0.89522
49808	0.95365
49809	0.91268
49810	7.9708
49811	7.7762
49812	7.783
49813	7.9788
49814	6.45
49815	6.6962
49816	1.7877
49817	1.8826
49818	1.3294
49819	1.3169
49820	1.5782
49821	1.5236
49822	0.14756
49823	0.16311
49824	0.10134
49825	6.8878e-002
49826	0.3614
49827	0.25867
49828	3.4702
49829	3.9819
49830	2.436
49831	1.7942
49832	3.716e-002
49833	4.2477e-002
49834	5.322
49835	5.8788
49836	2.7477
49837	3.1379
49838	2.3863
49839	2.5264
49840	3.6502
49841	4.2144
49842	1.631
49843	1.9341
49844	1.5174
49845	1.5017
49846	6.2376
49847	6.9027
49848	6.0967
49849	5.9073
49850	6.5319
49851	6.2075
49852	3.8842
49853	4.707
49854	4.4045
49855	3.7629
49856	1.0387
49857	1.9505
49858	2.1479
49859	2.7735
49860	3.7656
49861	3.7143
49862	3.7096
49863	3.4909
49864	3.3906
49865	0.17853
49866	6.0923e-002
49867	3.1086
49868	3.1514
49869	4.0313e-002
49870	4.4916e-002
49871	1.7218e-002
49872	4.2072e-002
49873	1.2367
49874	1.5919
49875	3.6156
49876	3.7126
49877	7.0706
49878	7.012
49879	4.0572
49880	4.6201
49881	3.4921
49882	3.9932
49883	2.5044
49884	3.8812
49885	3.7273
49886	4.4266
49887	5.0598
49888	6.7774
49889	6.761
49890	6.8054
49891	6.4278
49892	3.4531
49893	4.2846
49894	4.5301
49895	3.4753
49896	5.0957
49897	4.3111
49898	0.47113
49899	0.61305
49900	0.21732
49901	0.14718
49902	1.338
49903	1.4376
49904	1.0257
49905	1.0915
49906	4.483
49907	4.1462
49908	4.2673
49909	3.8138
49910	2.7433
49911	2.6015
49912	1.2178
49913	0.99168
49914	9.6863
49915	9.7959
49916	9.9311
49917	10.9
49918	10.496
49919	10.515
49920	5.1516
49921	6.9651
49922	4.2475
49923	4.2583
49924	3.7417
49925	3.9729
49926	2.7651
49927	3.0358
49928	3.3683
49929	4.1405
49930	0.58166
49931	0.46162
49932	3.0202
49933	1.9273
49934	2.3581
49935	2.8196
49936	2.533
49937	2.335
49938	3.6082
49939	4.2342
49940	1.6679
49941	2.2449
49942	4.5222
49943	5.0608
49944	4.64
49945	5.0215
49946	7.7165
49947	7.8893
49948	7.7632
49949	7.9667
49950	1.1329
49951	1.2427
49952	1.5065
49953	1.4594
49954	1.2641
49955	1.0663
49956	10.99
49957	9.5977
49958	7.8158
49959	7.9971
49960	7.8095
49961	7.9878
49962	0.53895
49963	0.46825
49964	2.5452
49965	2.5596
49966	2.9755
49967	3.0041
49968	3.7058
49969	3.4582
49970	2.8491
49971	2.7609
49972	5.9644
49973	6.0081
49974	2.4055e-002
49975	3.0598e-002
49976	2.9023e-002
49977	3.9327e-002
49978	8.7532e-002
49979	3.3853e-002
49980	1.999e-002
49981	4.1863e-002
49982	2.4969e-002
49983	1.7208e-002
49984	1.9014
49985	2.0239
49986	2.7493
49987	2.6809
49988	2.618
49989	2.2456
49990	7.1283
49991	7.2331
49992	4.7174
49993	6.1564
49994	4.7591
49995	5.7741
49996	4.545
49997	3.8815
49998	2.6948
49999	2.8465
50000	6.191
50001	6.7777
50002	3.0458
50003	3.3055
50004	3.5999
50005	3.842
50006	3.1216
50007	3.6675
50008	4.0476
50009	2.7898
50010	2.9356
50011	3.4978
50012	0.17764
50013	0.20188
50014	2.9207e-002
50015	7.4927e-002
50016	1.288
50017	1.3675
50018	2.4414
50019	3.0351
50020	2.9769
50021	2.0527
50022	0.12569
50023	0.15742
50024	6.2559e-002
50025	5.1253e-002
50026	0.68444
50027	0.82993
50028	1.0035
50029	1.233
50030	1.0962
50031	1.6874
50032	1.7964
50033	1.7253
50034	3.2679
50035	3.4502
50036	2.1169
50037	2.752
50038	0.7789
50039	0.69552
50040	1.3601
50041	1.3703
50042	9.697
50043	9.7372
50044	7.9501
50045	9.8955
50046	3.0533
50047	2.9252
50048	3.0154
50049	2.6221
50050	2.2496
50051	2.6185
50052	3.0875
50053	3.6218
50054	9.1651
50055	7.3791
50056	12.639
50057	14.049
50058	7.9543
50059	9.7501
50060	11.321
50061	10.47
50062	4.2673
50063	3.685
50064	5.1142
50065	4.6617
50066	4.6338e-002
50067	5.1858e-002
50068	3.6081
50069	3.5909
50070	1.9009
50071	2.1917
50072	4.9944
50073	5.0821
50074	4.8892
50075	3.1469
50076	3.7155
50077	3.328
50078	2.9061
50079	3.0419
50080	2.8149
50081	2.787
50082	2.1424
50083	5.9623
50084	6.4285
50085	0.60072
50086	0.60347
50087	0.96796
50088	0.71366
50089	3.3019
50090	4.6125
50091	1.1156
50092	0.69459
50093	0.50118
50094	0.31328
50095	4.7302
50096	4.9632
50097	0.79691
50098	0.33623
50099	2.3219
50100	2.5682
50101	2.6391
50102	2.5801
50103	0.58223
50104	0.62723
50105	3.3273
50106	3.2455
50107	5.771
50108	5.6844
50109	0.44988
50110	0.34448
50111	4.1306
50112	3.9611
50113	2.6107
50114	2.7696
50115	15.572
50116	16.647
50117	17.385
50118	21.026
50119	20.945
50120	19.01
50121	3.4207
50122	3.3474
50123	3.1236
50124	3.8277
50125	3.282
50126	3.1838
50127	2.7354
50128	2.8934
50129	2.2653
50130	2.8031
50131	3.7132
50132	3.5378
50133	7.6052
50134	7.8
50135	7.6056
50136	5.0711
50137	4.5252
50138	1.1058
50139	1.2285
50140	0.82105
50141	0.79558
50142	0.53039
50143	0.44843
50144	2.4902
50145	2.4855
50146	2.7192
50147	3.613
50148	5.7158
50149	5.358
50150	4.1969
50151	2.8024
50152	2.5811e-002
50153	6.1773e-002
50154	3.2272
50155	2.4652
50156	1.7054
50157	1.7752
50158	1.2033
50159	1.0322
50160	4.6462
50161	4.8582
50162	4.6575
50163	4.7905
50164	3.7962
50165	3.7953
50166	3.5995
50167	0.72505
50168	0.6588
50169	2.5431
50170	2.2529
50171	2.9717
50172	3.0046
50173	3.4088
50174	3.6931
50175	2.103
50176	1.5777
50177	3.4763
50178	3.7569
50179	1.3868
50180	1.4537
50181	0.19279
50182	0.15291
50183	0.75844
50184	0.73683
50185	0.96289
50186	1.2116
50187	1.8242
50188	1.7274
50189	0.4256
50190	0.40737
50191	0.40869
50192	0.40493
50193	0.37732
50194	0.31571
50195	2.315
50196	1.7929
50197	1.0835
50198	1.0047
50199	1.2691
50200	1.2612
50201	2.0809
50202	1.8509
50203	12.285
50204	12.411
50205	4.9745
50206	4.0514
50207	4.6475
50208	3.6862
50209	3.7086
50210	4.0633
50211	4.0541
50212	3.5755
50213	3.5212
50214	4.115
50215	1.1538
50216	1.0773
50217	0.43079
50218	0.49774
50219	0.48437
50220	0.42273
50221	3.0226
50222	2.4051
50223	0.86357
50224	0.98059
50225	0.67891
50226	0.62186
50227	1.4964
50228	1.5038
50229	0.61052
50230	0.65682
50231	0.94076
50232	0.85246
50233	1.6279
50234	1.5293
50235	1.1399
50236	1.0664
50237	0.77174
50238	0.85611
50239	0.68386
50240	0.65328
50241	1.3652
50242	1.4621
50243	0.97378
50244	0.88591
50245	1.3933
50246	1.367
50247	0.90991
50248	0.99447
50249	0.79488
50250	0.8549
50251	0.8609
50252	0.96745
50253	0.89943
50254	1.0254
50255	1.1328
50256	1.0592
50257	1.1187
50258	1.233
50259	1.0631
50260	1.1607
50261	0.72996
50262	0.6128
50263	0.78002
50264	0.70041
50265	1.085
50266	0.57754
50267	0.52595
50268	0.54968
50269	0.59018
50270	0.68674
50271	0.65084
50272	0.79819
50273	0.83393
50274	0.79706
50275	0.82902
50276	1.5693
50277	1.478
50278	1.1484
50279	1.1144
50280	0.44724
50281	0.44246
50282	0.76857
50283	0.8729
50284	1.3834
50285	1.4693
50286	0.71543
50287	0.75737
50288	0.8007
50289	0.88505
50290	1.1907
50291	1.2807
50292	1.0066
50293	0.98657
50294	0.97436
50295	0.90975
50296	0.5953
50297	0.66568
50298	2.2041
50299	2.8092
50300	0.35968
50301	0.36808
50302	0.46987
50303	0.53922
50304	1.8877
50305	1.7245
50306	0.87836
50307	0.90595
50308	1.0124
50309	0.94465
50310	0.74164
50311	0.81957
50312	1.2806
50313	1.2683
50314	0.77279
50315	0.70542
50316	0.57085
50317	0.68198
50318	0.65068
50319	0.67971
50320	0.87834
50321	0.93328
50322	1.9131
50323	1.9488
50324	0.18747
50325	0.16157
50326	0.37731
50327	0.31694
50328	0.14881
50329	0.16321
50330	1.6223
50331	1.7392
50332	0.54332
50333	0.61943
50334	1.1444
50335	1.0629
50336	1.0952
50337	1.1515
50338	0.49628
50339	0.54374
50340	1.4617
50341	1.5583
50342	1.6842
50343	1.5416
50344	0.53886
50345	0.621
50346	0.60528
50347	0.66026
50348	1.0926
50349	1.1286
50350	0.84468
50351	0.83263
50352	0.4067
50353	0.33564
50354	1.7994
50355	1.9104
50356	2.3252
50357	2.1341
50358	1.4318
50359	1.6066
50360	1.3471
50361	1.2032
50362	1.862
50363	1.772
50364	2.2848
50365	1.8589
50366	1.0462
50367	1.0529
50368	0.55251
50369	0.5659
50370	0.78137
50371	0.62505
50372	0.86207
50373	0.80626
50374	1.7396
50375	1.3579
50376	1.5767
50377	0.86351
50378	2.9332
50379	3.0484
50380	1.5448
50381	1.5077
50382	0.45032
50383	0.24928
50384	0.19953
50385	0.40239
50386	0.38651
50387	2.5792
50388	2.205
50389	2.9975
50390	2.4773
50391	1.3325
50392	1.3941
50393	1.1303
50394	1.1846
50395	0.76198
50396	0.70763
50397	0.63479
50398	0.65163
50399	0.52792
50400	0.50781
50401	0.1706
50402	0.23584
50403	0.41932
50404	0.47683
50405	0.32756
50406	0.41861
50407	0.16909
50408	0.13982
50409	1.845
50410	0.93983
50411	0.95837
50412	0.79613
50413	0.7077
50414	0.47848
50415	0.366
50416	0.33484
50417	0.34328
50418	0.35969
50419	0.43179
50420	5.0548
50421	4.1477
50422	3.2753
50423	2.8996
50424	4.8864
50425	4.1934
50426	4.1469
50427	0.80057
50428	0.77107
50429	1.0521
50430	1.1628
50431	0.16891
50432	0.19999
50433	0.90635
50434	0.92346
50435	1.3422
50436	1.499
50437	1.8745
50438	2.544
50439	2.2083
50440	2.3377
50441	1.1846
50442	1.2689
50443	0.53083
50444	0.41498
50445	1.4563
50446	1.5827
50447	0.74821
50448	0.75528
50449	1.1818
50450	1.0613
50451	2.9712
50452	3.6807
50453	5.5402
50454	5.8226
50455	4.69
50456	4.4502
50457	1.0219
50458	1.1374
50459	0.34282
50460	0.33669
50461	0.11617
50462	0.17889
50463	1.8342
50464	1.6705
50465	2.166
50466	2.4074
50467	3.9831
50468	2.848
50469	1.4785
50470	1.458
50471	1.5054
50472	1.3868
50473	1.7668
50474	2.124
50475	1.2196
50476	1.1769
50477	4.9902
50478	4.9395
50479	1.0759
50480	1.0796
50481	2.567
50482	0.73342
50483	0.79698
50484	1.2591
50485	1.4681
50486	1.2893
50487	1.813
50488	2.4526
50489	0.5741
50490	0.58805
50491	2.8647
50492	2.5105
50493	4.8708
50494	6.1541
50495	0.63144
50496	0.60587
50497	2.9659
50498	2.9902
50499	5.1694
50500	6.1858
50501	6.6623
50502	6.437
50503	0.91514
50504	0.91747
50505	0.4249
50506	0.3729
50507	1.2461
50508	1.1927
50509	2.6914
50510	2.8193
50511	0.14198
50512	0.16491
50513	1.7921
50514	1.6679
50515	1.4336
50516	1.5719
50517	2.4384
50518	2.0563
50519	1.004
50520	1.0473
50521	1.1667
50522	1.3032
50523	0.25387
50524	0.1968
50525	3.1108
50526	3.0746
50527	3.2599
50528	3.2492
50529	3.1733
50530	3.2662
50531	1.0898
50532	1.1466
50533	1.0825
50534	1.2017
50535	0.69432
50536	0.61632
50537	0.77181
50538	0.73037
50539	0.37944
50540	0.3694
50541	0.28303
50542	0.22887
50543	0.234
50544	0.18576
50545	1.6778
50546	1.5727
50547	1.3114
50548	1.2859
50549	3.7059
50550	1.0905
50551	1.0681
50552	1.365
50553	2.1201
50554	4.9684
50555	6.0268
50556	0.9003
50557	0.90804
50558	0.98964
50559	0.83707
50560	5.1664
50561	5.9055
50562	2.1136
50563	1.6649
50564	1.994
50565	2.437
50566	2.0954
50567	2.4747
50568	1.4323
50569	0.95982
50570	1.0199
50571	1.554
50572	1.1558
50573	2.2616
50574	2.5052
50575	2.4948
50576	2.8397
50577	1.7929
50578	1.8846
50579	1.0869
50580	0.97606
50581	2.311
50582	1.8869
50583	8.0976
50584	10.056
50585	4.9658
50586	4.941
50587	3.2837
50588	3.3255
50589	1.9042
50590	1.8258
50591	0.69569
50592	0.59159
50593	0.97248
50594	1.016
50595	0.86342
50596	0.81199
50597	0.26542
50598	0.18918
50599	4.5628
50600	4.5345
50601	1.6911
50602	1.7176
50603	2.1344
50604	2.2901
50605	2.4125
50606	2.3594
50607	2.5355
50608	2.4498
50609	0.81364
50610	0.82934
50611	4.5387
50612	7.8098
50613	5.7311
50614	0.92958
50615	0.84154
50616	0.4959
50617	0.62626
50618	0.24883
50619	0.29523
50620	0.31225
50621	0.29358
50622	0.24264
50623	0.1586
50624	0.32753
50625	0.26679
50626	1.0931
50627	1.0631
50628	1.8557
50629	1.6961
50630	3.1914
50631	2.9594
50632	5.2059
50633	4.7845
50634	5.1016
50635	5.559
50636	4.7042
50637	5.0998
50638	0.76223
50639	0.82079
50640	1.1006
50641	1.0268
50642	0.85101
50643	3.7486
50644	4.2793
50645	2.3639
50646	2.2623
50647	2.7087
50648	3.99
50649	2.2996
50650	2.3472
50651	5.1132
50652	4.1693
50653	4.2695
50654	4.7685
50655	0.46879
50656	0.44747
50657	0.36325
50658	0.31636
50659	0.14582
50660	0.10854
50661	4.5149
50662	3.9301
50663	0.83857
50664	0.78047
50665	0.50106
50666	0.49909
50667	1.2403
50668	1.4302
50669	1.123
50670	0.96046
50671	1.4426
50672	1.6002
50673	1.6972
50674	1.9706
50675	1.5523
50676	1.3759
50677	0.96741
50678	0.95197
50679	1.1287
50680	1.0505
50681	0.95894
50682	0.84465
50683	0.20409
50684	0.13255
50685	3.0203
50686	2.4551
50687	1.8442
50688	1.9439
50689	0.995
50690	1.0019
50691	1.0532
50692	1.2666
50693	0.99662
50694	0.852
50695	0.63603
50696	0.59727
50697	1.2432
50698	1.2525
50699	3.4134
50700	3.3223
50701	1.6484
50702	1.64
50703	0.70031
50704	0.67435
50705	1.3229
50706	1.3961
50707	0.35458
50708	0.43992
50709	1.1353
50710	1.1045
50711	1.1498
50712	1.036
50713	1.0427
50714	1.1564
50715	1.1057
50716	1.0216
50717	1.0764
50718	1.1564
50719	0.50698
50720	0.56758
50721	2.9677
50722	2.4999
50723	0.60824
50724	0.50617
50725	0.43574
50726	0.4294
50727	0.81822
50728	0.91238
50729	1.0092
50730	1.2359
50731	1.6603
50732	0.87957
50733	0.82726
50734	0.79931
50735	0.74099
50736	1.1182
50737	1.2633
50738	1.3395
50739	1.299
50740	0.87254
50741	0.87208
50742	0.81331
50743	0.84393
50744	1.0579
50745	0.99622
50746	1.2205
50747	1.2444
50748	2.1138
50749	2.5905
50750	1.1426
50751	1.047
50752	2.9244
50753	1.8855
50754	0.94453
50755	1.0632
50756	0.91092
50757	0.89563
50758	1.5154
50759	1.1449
50760	3.4591
50761	3.3902
50762	3.898
50763	0.79549
50764	0.75602
50765	0.89256
50766	1.0347
50767	0.92952
50768	0.8929
50769	0.92297
50770	0.89
50771	0.45388
50772	0.35465
50773	4.5798
50774	5.134
50775	2.6326
50776	2.7323
50777	0.91257
50778	0.80303
50779	0.86865
50780	4.4741
50781	4.2221
50782	1.6829
50783	1.8046
50784	0.2452
50785	0.6029
50786	0.38436
50787	0.43469
50788	9.2173e-002
50789	6.0188e-002
50790	1.2218
50791	1.2487
50792	1.1228
50793	1.2372
50794	0.58121
50795	0.53286
50796	0.57749
50797	0.67543
50798	1.5351
50799	1.6442
50800	1.8959
50801	2.536
50802	0.70507
50803	1.2038
50804	0.88113
50805	0.80445
50806	2.0032
50807	2.621
50808	0.45044
50809	0.41509
50810	1.564
50811	1.3269
50812	0.22757
50813	0.30191
50814	0.77724
50815	0.78324
50816	0.88873
50817	0.86329
50818	1.3654
50819	1.2998
50820	1.7417
50821	2.0087
50822	0.94683
50823	0.92671
50824	1.8617
50825	2.4478
50826	1.6165
50827	1.9125
50828	5.2318
50829	6.2172
50830	2.8523
50831	3.7699
50832	0.57541
50833	0.49858
50834	1.2762
50835	1.3865
50836	0.72494
50837	0.70585
50838	1.11
50839	1.0397
50840	1.7797
50841	1.6505
50842	1.416
50843	1.5269
50844	1.7326
50845	1.7014
50846	1.6841
50847	1.271
50848	1.9095
50849	2.0205
50850	1.4741
50851	1.4252
50852	1.0492
50853	1.1417
50854	0.40399
50855	0.38958
50856	1.4564
50857	1.4142
50858	1.7212
50859	1.6821
50860	2.0365
50861	0.41296
50862	0.28647
50863	0.4316
50864	0.48263
50865	0.53356
50866	0.54818
50867	0.73431
50868	0.73095
50869	0.75796
50870	0.80225
50871	0.85864
50872	0.80086
50873	0.9516
50874	0.86166
50875	2.9992
50876	3.1303
50877	5.2538e-002
50878	9.0129e-002
50879	5.4273e-002
50880	7.5976e-002
50881	0.85481
50882	0.81341
50883	1.2217
50884	1.3495
50885	1.0762
50886	1.2117
50887	0.8003
50888	0.86736
50889	0.71707
50890	0.75596
50891	2.2023
50892	1.8252
50893	1.0238
50894	1.1132
50895	1.6048
50896	1.9021
50897	1.3456
50898	1.3725
50899	0.6827
50900	0.74901
50901	0.43981
50902	0.41004
50903	0.50487
50904	0.51234
50905	1.4513
50906	1.2397
50907	4.0882
50908	3.7539
50909	4.9473
50910	4.9838
50911	4.0801
50912	4.2025
50913	0.25271
50914	0.25229
50915	0.51739
50916	0.58225
50917	3.3909
50918	2.5331
50919	1.6805
50920	1.6097
50921	2.7626
50922	2.9672
50923	0.79407
50924	0.65973
50925	2.6548
50926	2.303
50927	2.0516
50928	2.0417
50929	3.8331
50930	3.6683
50931	3.178
50932	3.452
50933	3.7268
50934	2.9391
50935	4.4596
50936	3.8807
50937	0.44008
50938	0.51562
50939	1.0169
50940	1.0594
50941	1.0325
50942	0.98325
50943	0.41284
50944	0.44821
50945	0.49896
50946	0.4316
50947	1.0115
50948	0.96316
50949	0.99043
50950	1.0177
50951	1.7223
50952	1.595
50953	0.95351
50954	1.0272
50955	1.147
50956	1.0358
50957	0.99258
50958	0.85181
50959	1.1579
50960	1.2574
50961	1.556
50962	1.3865
50963	2.1324
50964	2.2259
50965	11.253
50966	11.54
50967	11.858
50968	12.045
50969	5.8263
50970	6.0814
50971	6.2365
50972	6.875
50973	11.914
50974	12.442
50975	11.563
50976	12.109
50977	4.8884
50978	5.7281
50979	5.3197
50980	5.0503
50981	5.2024
50982	5.4024
50983	5.8386
50984	6.253
50985	5.4304
50986	5.4286
50987	2.5097e-002
50988	3.2011e-002
50989	3.1123e-002
50990	4.4075e-002
50991	1.9858e-002
50992	2.5977e-002
50993	1.9349
50994	1.9243
50995	5.8138
50996	5.8518
50997	5.7683
50998	5.8169
50999	0.5658
51000	0.60702
51001	1.1619
51002	1.0815
51003	0.55736
51004	0.49962
51005	6.4034
51006	6.0697
51007	6.0248
51008	6.3186
51009	3.6336
51010	3.6349
51011	11.745
51012	11.294
51013	0.8636
51014	0.59779
51015	0.64319
51016	0.40387
51017	1.8934
51018	1.7056
51019	0.86426
51020	1.1865
51021	0.5219
51022	0.61209
51023	0.55123
51024	0.59434
51025	2.6985
51026	3.2293
51027	6.9183
51028	0.89057
51029	1.0705
51030	0.84763
51031	0.99656
51032	5.9381
51033	6.4066
51034	2.5445
51035	3.182
51036	2.1205
51037	1.8401
51038	2.3061
51039	1.9877
51040	2.0586
51041	2.3101
51042	3.0979
51043	3.1591
51044	3.8827
51045	5.0641
51046	2.6087
51047	2.3582
51048	3.656
51049	2.93
51050	1.8584
51051	1.3681
51052	1.3498
51053	0.3084
51054	0.20687
51055	1.7675
51056	1.624
51057	2.0814
51058	1.8596
51059	2.257
51060	2.4171
51061	3.9747
51062	4.3317
51063	3.2112
51064	3.69
51065	3.8951
51066	3.9383
51067	4.4895
51068	1.3557
51069	1.9893
51070	4.1641
51071	4.3909
51072	0.76776
51073	0.78703
51074	2.8046
51075	2.9044
51076	0.95468
51077	0.95756
51078	0.8996
51079	1.1479
51080	0.78634
51081	0.65282
51082	2.6377
51083	3.46
51084	2.0032
51085	2.0786
51086	1.1411
51087	1.2503
51088	3.854
51089	4.4704
51090	1.6223
51091	1.6936
51092	2.3214
51093	2.0503
51094	5.0127
51095	6.198
51096	0.38076
51097	0.26925
51098	0.4027
51099	0.41286
51100	2.5834
51101	2.2386
51102	5.1981
51103	4.8792
51104	7.1852
51105	6.6201
51106	2.0269
51107	1.839
51108	5.0073
51109	5.0052
51110	4.9691
51111	5.2734
51112	0.27396
51113	0.32619
51114	7.2425
51115	7.0669
51116	2.4617
51117	2.6206
51118	1.1225
51119	0.9931
51120	2.1154
51121	1.858
51122	3.7262
51123	3.3089
51124	8.5802
51125	8.2265
51126	4.4279
51127	4.4937
51128	0.91313
51129	0.85348
51130	3.2413
51131	3.173
51132	4.3079
51133	4.5676
51134	0.50304
51135	0.27699
51136	0.81032
51137	3.0266
51138	2.7716
51139	3.9863
51140	4.9122
51141	5.4558
51142	5.3033
51143	15.064
51144	13.643
51145	2.9785
51146	2.4801
51147	3.045
51148	2.8754
51149	2.3661
51150	2.3057
51151	0.62218
51152	0.55401
51153	2.0616
51154	2.0575
51155	1.69
51156	1.5949
51157	0.48253
51158	0.47364
51159	0.35243
51160	0.34439
51161	1.5268
51162	1.4234
51163	0.96823
51164	1.0117
51165	1.4692
51166	1.5523
51167	0.62265
51168	0.60258
51169	1.5714
51170	1.4064
51171	0.48117
51172	0.54451
51173	0.49959
51174	0.44131
51175	0.54577
51176	0.60236
51177	1.0706
51178	1.1357
51179	0.98611
51180	0.97485
51181	0.60689
51182	0.65803
51183	1.0031
51184	1.0763
51185	1.0708
51186	0.97719
51187	2.0574
51188	2.0742
51189	1.4549
51190	1.3989
51191	1.1443
51192	1.0274
51193	0.55021
51194	0.54693
51195	1.7173
51196	1.5776
51197	3.626
51198	3.1992
51199	0.52165
51200	0.52494
51201	4.7035
51202	4.6518
51203	0.10733
51204	9.7191e-002
51205	1.3129
51206	1.304
51207	0.98161
51208	0.92622
51209	0.90081
51210	0.78386
51211	0.30403
51212	0.1546
51213	0.93757
51214	1.116
51215	2.0557
51216	2.3692
51217	5.1978
51218	5.4571
51219	1.2739
51220	1.2299
51221	0.68806
51222	0.69993
51223	0.69579
51224	0.73414
51225	0.66183
51226	0.66307
51227	0.64513
51228	0.72409
51229	3.4525
51230	3.261
51231	3.6142
51232	2.9518
51233	4.076
51234	3.4792
51235	5.9967
51236	6.23
51237	0.70654
51238	0.7345
51239	4.9732
51240	4.4887
51241	1.5197
51242	1.2609
51243	0.6064
51244	0.51872
51245	1.5551
51246	1.6206
51247	1.2171
51248	1.2005
51249	0.62997
51250	0.71193
51251	4.7799
51252	4.9476
51253	4.2593
51254	4.6434
51255	0.16522
51256	0.14652
51257	0.14758
51258	0.28939
51259	0.57429
51260	0.69999
51261	5.3481
51262	5.5964
51263	2.9791
51264	2.4579
51265	0.70658
51266	0.76827
51267	0.4706
51268	0.45549
51269	0.57991
51270	0.49175
51271	1.1345
51272	1.2118
51273	1.6728
51274	1.8653
51275	1.1631
51276	1.2622
51277	1.7103
51278	2.0755
51279	2.896
51280	2.2807
51281	0.99546
51282	1.0694
51283	0.62935
51284	0.69092
51285	0.69849
51286	0.66614
51287	1.5104
51288	1.3041
51289	1.0125
51290	1.1364
51291	1.3354
51292	1.1894
51293	0.74807
51294	0.94762
51295	0.93788
51296	0.87031
51297	0.85974
51298	0.89064
51299	0.82887
51300	3.2358
51301	3.0697
51302	2.5107
51303	2.1632
51304	1.1065
51305	0.98463
51306	1.0175
51307	0.95319
51308	0.23651
51309	0.28317
51310	0.64988
51311	0.76474
51312	0.63845
51313	0.60547
51314	0.4878
51315	0.37305
51316	1.7404
51317	1.6659
51318	0.68233
51319	0.65958
51320	0.69908
51321	0.88062
51322	0.58194
51323	0.58087
51324	0.98677
51325	0.93851
51326	2.0669
51327	2.7352
51328	1.0574
51329	1.0826
51330	0.93269
51331	1.1088
51332	0.85531
51333	0.7054
51334	1.1017
51335	1.2103
51336	1.0007
51337	0.90981
51338	3.3824e-002
51339	0.16294
51340	0.66972
51341	0.5275
51342	0.20225
51343	0.29087
51344	0.20135
51345	0.98067
51346	1.0656
51347	1.4252
51348	1.4101
51349	0.45611
51350	0.44495
51351	0.87028
51352	0.78634
51353	0.73311
51354	0.95022
51355	0.96333
51356	0.88591
51357	0.52942
51358	0.60728
51359	0.74331
51360	0.76083
51361	0.73316
51362	0.80212
51363	1.6081
51364	1.2209
51365	0.38289
51366	0.29097
51367	1.1142
51368	0.90893
51369	0.7817
51370	0.74425
51371	1.7076
51372	1.8883
51373	0.2676
51374	0.30333
51375	0.79871
51376	0.80023
51377	0.67913
51378	0.85376
51379	1.918
51380	1.5908
51381	1.0544
51382	1.3024
51383	1.1645
51384	1.0099
51385	1.3158
51386	1.1221
51387	0.76761
51388	0.76722
51389	1.2713
51390	1.5198
51391	0.51232
51392	0.56237
51393	0.62551
51394	0.74183
51395	0.43314
51396	0.45729
51397	0.6167
51398	0.7263
51399	2.1736
51400	2.623
51401	1.3909
51402	1.6644
51403	0.97413
51404	1.1556
51405	1.1178
51406	1.1845
51407	0.89582
51408	0.87162
51409	0.10492
51410	0.13
51411	1.0521
51412	1.0872
51413	1.6588
51414	1.6021
51415	2.888
51416	3.3983
51417	1.9816
51418	1.9887
51419	0.85156
51420	1.0802
51421	1.1123
51422	1.2376
51423	1.4287
51424	1.6201
51425	5.9453
51426	6.2164
51427	4.2321
51428	4.0803
51429	2.7519
51430	2.2465
51431	0.68592
51432	0.8457
51433	3.4143
51434	3.5894
51435	1.7574
51436	1.6394
51437	1.9837
51438	1.7099
51439	3.0549
51440	3.0327
51441	11.716
51442	11.716
51443	8.9462
51444	9.0927
51445	1.4347
51446	1.2393
51447	0.64664
51448	0.72949
51449	1.0236
51450	0.99312
51451	1.0373
51452	0.99917
51453	0.7294
51454	0.77543
51455	6.4507
51456	6.1107
51457	3.1216
51458	3.3374
51459	0.85846
51460	0.75468
51461	0.53371
51462	0.38841
51463	0.38621
51464	0.37682
51465	0.66913
51466	0.76801
51467	0.98449
51468	1.0099
51469	0.93811
51470	1.0067
51471	0.64828
51472	0.67903
51473	1.1845
51474	1.0882
51475	1.8743
51476	1.6343
51477	2.0908
51478	2.0461
51479	2.6129
51480	2.0289
51481	11.42
51482	11.418
51483	11.72
51484	11.721
51485	11.097
51486	11.098
51487	11.41
51488	11.409
51489	10.792
51490	10.793
51491	10.773
51492	11.111
51493	11.111
51494	10.497
51495	10.497
51496	10.804
51497	10.803
51498	10.159
51499	10.161
51500	10.497
51501	10.496
51502	9.8836
51503	9.8832
51504	10.165
51505	10.105
51506	10.163
51507	9.5737
51508	9.5749
51509	9.883
51510	9.883
51511	9.5785
51512	9.5768
51513	0.13538
51514	0.18676
51515	1.6833
51516	2.2175
51517	2.7822
51518	1.91
51519	5.2323
51520	5.137
51521	4.4031
51522	4.4867
51523	0.28337
51524	0.27849
51525	6.3554
51526	4.982
51527	2.734
51528	4.7801
51529	6.1006
51530	3.8092
51531	8.7937
51532	6.8532
51533	7.5019
51534	0.5757
51535	3.6922
51536	5.7695
51537	5.6047
51538	6.8626
51539	3.4066
51540	4.9128
51541	6.3278
51542	3.5284
51543	2.4527
51544	6.831
51545	5.584
51546	5.7097
51547	5.6909
51548	2.7503
51549	4.6055
51550	3.8093
51551	4.7296
51552	0.96212
51553	6.0899
51554	5.7795
51555	0.95852
51556	6.545
51557	3.8723
51558	4.015
51559	1.6117
51560	1.9622
51561	6.7481
51562	3.9356
51563	1.9571
51564	2.5323
51565	3.9517
51566	5.2691
51567	4.3252
51568	4.7694
51569	5.1629
51570	5.5059
51571	6.8287
51572	0.46413
51573	6.6459
51574	5.5812
51575	2.3388
51576	2.4229
51577	4.0053
51578	4.2653
51579	3.9878
51580	6.852
51581	3.1799
51582	2.1248
51583	2.7463
51584	7.4383
51585	6.3281
51586	3.895
51587	6.7776
51588	5.9379
51589	5.9272
51590	6.1456
51591	4.3293
51592	0.53911
51593	6.8737
51594	1.6582
51595	6.2916
51596	6.136
51597	5.9668
51598	4.3287
51599	3.9714
51600	2.8227
51601	0.56487
51602	5.4029
51603	3.9455
51604	0.55755
51605	4.0792
51606	10.768
51607	1.782
51608	4.6864
51609	3.8569
51610	7.0202
51611	1.1911
51612	6.423
51613	4.0167
51614	0.91205
51615	3.8045
51616	6.3189
51617	3.3976
51618	6.6269
51619	6.8795
51620	7.0751
51621	11.064
51622	0.56603
51623	3.0071
51624	6.5085
51625	4.5817
51626	4.6025
51627	4.2705
51628	4.3635
51629	11.333
51630	6.2027
51631	7.0529
51632	3.925
51633	0.46968
51634	6.382
51635	2.1191
51636	3.6051
51637	6.629
51638	3.6226
51639	2.7316
51640	10.422
51641	4.9612
51642	0.51792
51643	4.1201
51644	4.0718
51645	3.3148
51646	9.6973
51647	3.7674
51648	6.2975
51649	7.0325
51650	0.61933
51651	1.032
51652	6.7334
51653	2.8094
51654	6.4027
51655	0.62839
51656	6.8642
51657	9.085
51658	4.3894
51659	6.814
51660	11.285
51661	2.5708
51662	3.8973
51663	4.7011
51664	3.8112
51665	6.5029
51666	6.9488
51667	9.0661
51668	4.3346
51669	4.7409
51670	4.3706
51671	0.88225
51672	10.777
51673	7.0751
51674	6.8062
51675	6.2815
51676	10.398
51677	9.9659
51678	8.9546
51679	4.0606
51680	1.5052
51681	0.7739
51682	2.8095
51683	2.0407
51684	4.2068
51685	3.8175
51686	6.468
51687	5.9087
51688	9.4301
51689	0.8243
51690	5.6209
51691	1.6681
51692	4.5548
51693	3.8173
51694	6.0327
51695	2.7857
51696	0.1811
51697	1.8393
51698	2.7748
51699	5.4409
51700	2.679
51701	6.81
51702	11.192
51703	0.44288
51704	7.1797
51705	6.3659
51706	3.8586
51707	8.8859
51708	2.7871
51709	6.6297
51710	3.9071
51711	6.9144
51712	1.0628
51713	6.8932
51714	7.0517
51715	3.8816
51716	3.2315
51717	11.129
51718	3.8835
51719	8.4097
51720	3.2665
51721	10.55
51722	3.7298
51723	1.3508
51724	0.77018
51725	0.44361
51726	11.198
51727	2.9654
51728	6.8407
51729	5.4229
51730	2.1541
51731	8.3836
51732	4.254
51733	2.5667
51734	10.769
51735	6.2564
51736	0.54022
51737	5.0733
51738	0.17186
51739	9.1587
51740	4.344
51741	9.5358
51742	12.862
51743	0.74247
51744	11.193
51745	0.24844
51746	3.1474
51747	8.5437
51748	3.1523
51749	4.0322
51750	0.96363
51751	2.9448
51752	2.8205
51753	2.1197
51754	0.53137
51755	7.0034
51756	7.55
51757	2.6476
51758	8.1388
51759	0.60934
51760	3.912
51761	7.0835
51762	2.2687
51763	6.8013
51764	5.1392
51765	2.9098
51766	11.713
51767	6.3089
51768	0.99863
51769	3.5063
51770	1.9929
51771	0.27729
51772	5.0508
51773	3.447
51774	2.6184
51775	9.9242
51776	8.0215
51777	2.3977
51778	1.3391
51779	5.3365
51780	4.0837
51781	3.6499
51782	6.3879
51783	5.9225
51784	2.6867
51785	2.3414
51786	1.8843
51787	9.2546
51788	6.0004
51789	2.6766
51790	1.7617
51791	10.402
51792	2.9242
51793	2.9492
51794	5.0273
51795	8.2035
51796	7.5849
51797	9.6353
51798	6.7092
51799	0.40653
51800	5.0019
51801	10.08
51802	0.50078
51803	6.8591
51804	6.8404
51805	5.5735
51806	6.039
51807	5.8386
51808	4.4308
51809	4.9461
51810	6.09
51811	6.6272
51812	6.6399
51813	2.4086
51814	3.9307
51815	5.8305
51816	3.9096
51817	7.4566
51818	5.7458
51819	7.7863
51820	0.49565
51821	1.0265
51822	7.0212
51823	0.22315
51824	6.4674
51825	4.3014
51826	3.9515
51827	0.25976
51828	1.8704
51829	5.9224
51830	10.569
51831	7.7082
51832	6.6349
51833	3.22
51834	4.2693
51835	0.50345
51836	6.3993
51837	6.8453
51838	7.1607
51839	3.1889
51840	0.19027
51841	4.1629
51842	3.9719
51843	0.35527
51844	8.3474
51845	0.45856
51846	0.16209
51847	1.9258
51848	6.8905
51849	5.4421
51850	6.5114
51851	2.8896
51852	2.7471
51853	1.9288
51854	9.7077
51855	3.1814
51856	11.635
51857	5.5711
51858	0.58138
51859	4.6092
51860	4.3938
51861	6.1867
51862	2.6073
51863	0.54745
51864	1.9184
51865	3.7109
51866	3.85
51867	1.2862
51868	2.9648
51869	3.0514
51870	2.639
51871	2.5316
51872	6.9136
51873	4.1644
51874	8.9507
51875	6.7311
51876	0.60632
51877	13.061
51878	6.9989
51879	1.2927
51880	2.6473
51881	7.1712
51882	7.1334
51883	4.4125
51884	6.5925
51885	0.95026
51886	3.9731
51887	1.2543
51888	0.33821
51889	7.9121
51890	6.8209
51891	3.0465
51892	1.1977
51893	6.427
51894	5.7224
51895	12.664
51896	2.7012
51897	6.7481
51898	7.3369
51899	4.3759
51900	2.3349
51901	3.0062
51902	5.6732
51903	2.7731
51904	2.553
51905	7.0793
51906	2.2826
51907	3.9153
51908	2.8791
51909	5.7787
51910	7.6392
51911	2.2142
51912	5.2042
51913	10.381
51914	4.9639
51915	2.2283
51916	6.6438
51917	10.022
51918	10.357
51919	0.74674
51920	7.6636
51921	6.5335
51922	12.098
51923	10.34
51924	2.4725
51925	10.571
51926	0.56899
51927	6.1282
51928	5.0745
51929	10.769
51930	5.0541
51931	6.8073
51932	1.8473
51933	4.7624
51934	1.9006
51935	6.3996
51936	6.7544
51937	5.9922
51938	1.3603
51939	6.0893
51940	0.84873
51941	1.7961
51942	7.9855
51943	8.1167
51944	3.7478
51945	0.96649
51946	4.0372
51947	0.12057
51948	4.9286
51949	5.5609
51950	3.9321
51951	3.7673
51952	2.9475
51953	4.4
51954	5.0567
51955	8.8863
51956	4.3662
51957	2.4266
51958	4.2075
51959	1.1379
51960	5.9193
51961	1.9513
51962	6.7285
51963	4.0443
51964	6.8151
51965	1.6485
51966	5.3323
51967	6.2601
51968	11.622
51969	1.9234
51970	17.011
51971	12.891
51972	7.1665
51973	9.892
51974	9.4634
51975	6.1548
51976	5.5802
51977	9.7806
51978	1.194
51979	0.78328
51980	5.44
51981	1.2971
51982	3.8237
51983	11.747
51984	6.7509
51985	4.2388
51986	4.322
51987	4.6038
51988	4.4823
51989	3.8422
51990	3.4552
51991	4.0529
51992	6.7504
51993	1.6625
51994	1.0007
51995	2.7717
51996	6.1789
51997	9.0731
51998	1.5071
51999	4.486
52000	4.4557
52001	3.8328
52002	1.7559
52003	7.4259
52004	3.6754
52005	10.993
52006	1.7866
52007	2.6814
52008	7.4254
52009	4.3833
52010	8.6106
52011	7.9993
52012	9.862
52013	11.435
52014	2.1134
52015	4.4628
52016	5.2761
52017	5.9714
52018	1.7006
52019	11.335
52020	3.0155
52021	2.0324
52022	4.7385
52023	0.90396
52024	0.49509
52025	0.96193
52026	6.905
52027	1.8639
52028	1.6175
52029	8.0873
52030	5.5165
52031	6.8131
52032	5.2414
52033	6.1413
52034	8.1746
52035	3.3478
52036	2.9821
52037	8.8143
52038	0.97411
52039	11.767
52040	10.331
52041	12.875
52042	4.485
52043	0.50575
52044	9.4156
52045	11.72
52046	10.33
52047	9.6573
52048	1.5779
52049	2.1709
52050	5.7899
52051	4.0106
52052	9.3022
52053	4.231
52054	1.8066
52055	2.6265
52056	2.6401
52057	9.2698
52058	3.6581
52059	6.4545
52060	9.3259
52061	0.29476
52062	7.5026
52063	6.7062
52064	8.4784
52065	2.084
52066	0.34274
52067	3.7591
52068	2.5298
52069	0.63821
52070	2.6981
52071	7.4531
52072	4.9611
52073	6.8939
52074	6.3515
52075	4.3015
52076	1.2501
52077	3.5779
52078	4.0469
52079	2.5923
52080	7.0022
52081	6.9936
52082	4.6352
52083	7.1314
52084	7.1993
52085	2.6133
52086	3.4645
52087	3.4733
52088	1.0472
52089	1.7358
52090	6.6156
52091	7.0725
52092	7.2296
52093	13.217
52094	2.4488
52095	3.5268
52096	3.1919
52097	6.7672
52098	5.6101
52099	4.2597
52100	4.7792
52101	5.9306
52102	5.2418
52103	10.889
52104	2.7055
52105	5.0165
52106	0.31825
52107	8.5818
52108	0.51532
52109	0.69291
52110	2.8049
52111	0.45525
52112	1.5415
52113	7.3786
52114	10.697
52115	6.108
52116	2.5074
52117	10.771
52118	7.5217
52119	2.7514
52120	0.29208
52121	1.4022
52122	10.577
52123	5.8816
52124	2.6971
52125	2.9523
52126	0.52495
52127	4.3928
52128	2.5097
52129	2.9342
52130	1.6411
52131	2.6851
52132	4.6055
52133	3.1167
52134	4.442
52135	2.9854
52136	1.12
52137	3.0375
52138	2.9149
52139	6.0026
52140	3.3534
52141	5.4148
52142	3.9913
52143	10.62
52144	4.1973
52145	0.58601
52146	17.151
52147	4.0709
52148	4.455
52149	3.9662
52150	8.0039
52151	2.1497
52152	10.181
52153	4.0274
52154	3.5393
52155	4.1209
52156	1.8095
52157	6.7612
52158	6.71
52159	2.3425
52160	5.6985
52161	4.1626
52162	1.2092
52163	1.3111
52164	9.8119
52165	3.4921
52166	2.0486
52167	4.4554
52168	4.8911
52169	1.0318
52170	2.7162
52171	3.6209
52172	7.0739
52173	2.1715
52174	5.9658
52175	6.0275
52176	2.2489
52177	2.1826
52178	1.329
52179	3.6913
52180	0.467
52181	10.188
52182	1.3767
52183	0.16314
52184	1.0547
52185	3.8639
52186	5.0048
52187	2.3275
52188	1.8873
52189	8.2496
52190	3.5971
52191	8.6929
52192	6.8521
52193	2.8847
52194	3.0235
52195	4.0459
52196	3.9482
52197	2.852
52198	6.1026
52199	0.93308
52200	10.176
52201	1.7566
52202	3.2934
52203	2.1872
52204	2.5815
52205	0.75837
52206	3.6866
52207	7.2758
52208	1.2314
52209	1.1039
52210	11.378
52211	1.7046
52212	11.282
52213	16.739
52214	10.401
52215	2.7066
52216	18.146
52217	6.6447
52218	7.3917
52219	7.4558
52220	11.08
52221	3.3812
52222	1.1471
52223	5.5228
52224	2.5889
52225	13.524
52226	7.6252
52227	11.788
52228	9.2689
52229	11.719
52230	10.66
52231	10.446
52232	2.0188
52233	7.9105
52234	10.9
52235	3.0907
52236	5.5851
52237	0.96079
52238	0.32524
52239	3.3879
52240	10.569
52241	10.274
52242	6.2649
52243	11.444
52244	11.194
52245	11.638
52246	4.7141
52247	5.8593
52248	3.2459
52249	5.6103
52250	3.0492
52251	5.8518
52252	1.212
52253	1.0983
52254	17.158
52255	3.3421
52256	5.5137
52257	5.5882
52258	6.4755
52259	1.8962
52260	3.8481
52261	1.1821
52262	6.4092
52263	5.8617
52264	2.4574
52265	6.8116
52266	6.8119
52267	4.3781
52268	6.8356
52269	11.023
52270	3.0766
52271	4.9588
52272	3.8872
52273	2.4906
52274	2.9383
52275	6.4439
52276	3.3363
52277	0.57493
52278	4.0624
52279	0.72944
52280	1.3463
52281	6.9386
52282	3.6297
52283	2.4133
52284	4.0198
52285	3.9624
52286	5.1635
52287	2.4318
52288	2.8553
52289	12.904
52290	0.93225
52291	0.50342
52292	4.305
52293	4.1295
52294	2.5446
52295	5.1674
52296	4.0431
52297	11.788
52298	6.7674
52299	6.6732
52300	6.923
52301	6.8106
52302	6.5688
52303	6.6392
52304	6.9013
52305	6.6526
52306	6.914
52307	2.9746
52308	6.8856
52309	4.7408
52310	2.8284
52311	4.5877
52312	9.3339
52313	4.1271
52314	5.576
52315	6.0897
52316	9.7255
52317	6.7547
52318	7.0787
52319	9.0397e-002
52320	2.789
52321	4.3694
52322	4.5141
52323	19.245
52324	9.0438
52325	4.0347
52326	1.8659
52327	4.8379
52328	7.6708
52329	2.9225
52330	4.0786
52331	3.8947
52332	4.3696
52333	4.974
52334	4.5996
52335	5.7609
52336	2.2685
52337	2.5697
52338	5.201
52339	6.3001
52340	3.9741
52341	5.703
52342	11.875
52343	8.6345
52344	7.6274
52345	4.7093
52346	10.859
52347	11.703
52348	4.9059
52349	8.1589
52350	4.7357
52351	15.132
52352	10.038
52353	11.583
52354	3.0503
52355	0.34647
52356	2.911
52357	0.31609
52358	1.7078
52359	0.98661
52360	12.176
52361	0.5934
52362	1.95
52363	2.4833
52364	5.5129
52365	4.159
52366	4.2605
52367	3.8189
52368	3.4496
52369	12.109
52370	4.5775
52371	4.2551
52372	0.18709
52373	2.4474
52374	0.21845
52375	1.6959
52376	5.1444
52377	6.2428
52378	2.6482
52379	5.4715
52380	18.011
52381	11.226
52382	4.5524
52383	2.8507
52384	1.0187
52385	0.9067
52386	0.26301
52387	3.146
52388	7.7465
52389	2.0273
52390	19.242
52391	2.0461
52392	3.3294
52393	7.2655
52394	4.4476
52395	12.435
52396	0.59789
52397	6.6332
52398	1.1923
52399	2.4738
52400	2.9368
52401	4.1411
52402	9.4324
52403	0.535
52404	0.86293
52405	9.0817
52406	2.2435
52407	2.2637
52408	0.9504
52409	12.028
52410	2.0044
52411	0.45729
52412	8.8291
52413	6.9011
52414	2.7388
52415	2.9133
52416	8.1815
52417	4.3628
52418	3.4637
52419	12.42
52420	0.77766
52421	1.3998
52422	5.4125
52423	5.3502
52424	6.6599
52425	7.5505
52426	6.825
52427	7.0002
52428	0.44712
52429	0.60158
52430	2.682
52431	6.3029
52432	6.8403
52433	6.4448
52434	5.5837
52435	9.7156
52436	4.9211
52437	3.2504
52438	5.1945
52439	1.6439
52440	5.2629
52441	4.3268
52442	1.5355
52443	3.8779
52444	3.0345
52445	5.8365
52446	3.163
52447	4.6895
52448	3.7058
52449	1.7127
52450	10.171
52451	3.4121
52452	2.0378
52453	3.6234
52454	3.4973
52455	7.1036
52456	11.37
52457	1.4205
52458	3.9665
52459	0.6837
52460	0.8026
52461	5.5542
52462	5.0918
52463	2.3942
52464	10.767
52465	6.4701
52466	2.6897
52467	3.1982
52468	11.714
52469	4.6854
52470	7.8574
52471	6.5514
52472	6.7426
52473	9.416
52474	4.8447
52475	7.9722
52476	6.7535
52477	3.8153
52478	3.7917
52479	8.5511
52480	2.1651
52481	3.2736
52482	6.2099
52483	10.688
52484	2.2075
52485	11.127
52486	6.3312
52487	4.2413
52488	7.3907
52489	8.0475
52490	9.7576
52491	8.1818
52492	6.7089
52493	7.7393
52494	2.
52495	2.758
52496	6.7523e-002
52497	5.8098
52498	13.024
52499	6.6273
52500	8.4404
52501	9.9058
52502	9.907
52503	10.381
52504	4.0216
52505	10.861
52506	10.038
52507	9.6982
52508	11.986
52509	2.6743
52510	2.9419
52511	11.769
52512	4.3812
52513	2.2217
52514	3.693
52515	6.8638
52516	6.9145
52517	5.4601
52518	8.0879
52519	6.8049
52520	2.6027
52521	0.40644
52522	0.40318
52523	1.5669
52524	0.59086
52525	9.657
52526	3.5889
52527	2.8969
52528	6.1415
52529	0.39168
52530	1.8085
52531	0.36521
52532	1.6427
52533	1.1659
52534	5.0227
52535	5.0753
52536	3.1939
52537	12.335
52538	3.8538
52539	0.57018
52540	5.6191
52541	2.8158
52542	8.7627
52543	4.4413
52544	4.2644
52545	0.36809
52546	3.1309
52547	11.738
52548	8.3336
52549	0.47907
52550	0.96303
52551	0.55631
52552	3.2422
52553	2.2825
52554	2.1872
52555	3.7647
52556	2.6394
52557	3.5241
52558	2.5254
52559	3.3087
52560	2.3191
52561	4.0138
52562	3.4648
52563	4.1602
52564	0.2735
52565	1.4307
52566	0.24751
52567	9.321
52568	3.0131
52569	2.9136
52570	3.4327
52571	2.5047
52572	1.3744
52573	1.0772
52574	1.8709
52575	2.5515
52576	7.0874
52577	6.8481
52578	7.0018
52579	4.8088
52580	2.3784
52581	3.9246
52582	4.0204
52583	2.7614
52584	3.5365
52585	2.4704
52586	4.0146
52587	3.2728
52588	3.557
52589	1.2132
52590	2.2789
52591	3.5614
52592	2.1852
52593	4.9253
52594	2.6856
52595	4.9883
52596	3.5315
52597	7.1702
52598	2.4618
52599	6.6333
52600	6.846
52601	6.4587
52602	4.3171
52603	5.8012
52604	3.9001
52605	6.1427
52606	2.9224
52607	0.42948
52608	6.6595
52609	2.5617
52610	10.663
52611	3.8732
52612	1.654
52613	4.1367
52614	1.0465
52615	4.6577
52616	9.3243
52617	7.371
52618	5.15
52619	1.194
52620	7.2728
52621	0.7949
52622	7.294
52623	7.4046
52624	8.5259
52625	2.6956
52626	8.7639
52627	5.9431
52628	8.9508
52629	0.25301
52630	5.8648
52631	0.34036
52632	2.7623
52633	6.7879
52634	12.682
52635	13.196
52636	3.1032
52637	1.4146
52638	11.285
52639	12.42
52640	6.1081
52641	11.73
52642	9.0824
52643	11.914
52644	11.584
52645	11.697
52646	11.091
52647	0.58369
52648	2.5772
52649	5.9666
52650	6.8695
52651	10.407
52652	4.2607
52653	2.766
52654	11.813
52655	6.3468
52656	6.2795
52657	2.9148
52658	2.1304
52659	2.44
52660	6.6479
52661	0.50843
52662	1.0791
52663	0.58565
52664	3.7401
52665	2.2239
52666	4.2439
52667	5.0751
52668	0.57454
52669	6.7466
52670	7.0405
52671	5.3456
52672	4.1685
52673	5.1217
52674	5.2254
52675	4.7374
52676	6.2003
52677	1.7887
52678	7.0157
52679	6.0865
52680	8.3812
52681	2.8326
52682	4.3394
52683	5.9096
52684	3.4368
52685	2.537
52686	4.0013
52687	3.2794
52688	2.9654
52689	7.025
52690	4.1747
52691	1.4004
52692	1.0417
52693	1.7779
52694	8.9548
52695	8.6108
52696	7.1799
52697	5.4273
52698	4.4811
52699	0.24513
52700	0.50861
52701	2.7023
52702	3.9338
52703	3.0235
52704	2.5581
52705	7.0688
52706	5.675
52707	7.0453
52708	6.8866
52709	7.0096
52710	2.979
52711	2.2641
52712	3.4572
52713	2.9563
52714	3.1818
52715	3.0137
52716	3.3284
52717	4.0556
52718	3.9973
52719	4.7643
52720	4.3374
52721	5.01
52722	3.9929
52723	3.3723
52724	1.0546
52725	7.3374
52726	7.6423
52727	8.1746
52728	6.8513
52729	6.9937
52730	1.1131
52731	7.0286
52732	13.134
52733	4.5691
52734	2.7805
52735	11.217
52736	11.903
52737	11.939
52738	11.438
52739	5.9384
52740	0.69015
52741	0.37452
52742	0.3914
52743	5.835
52744	0.53285
52745	2.6521
52746	6.737
52747	3.4239
52748	0.98553
52749	0.42873
52750	0.14376
52751	9.8199
52752	0.39721
52753	3.8996
52754	1.1306
52755	5.8788
52756	3.5909
52757	5.8593
52758	6.2197
52759	0.94058
52760	7.0782
52761	0.99838
52762	0.74205
52763	0.56752
52764	0.14713
52765	4.3884
52766	2.8185
52767	3.4697
52768	3.9517
52769	10.316
52770	3.3855
52771	3.8921
52772	7.1286
52773	5.4183
52774	3.4734
52775	2.7324
52776	5.5253
52777	3.5185
52778	7.1505
52779	7.1976
52780	6.3151
52781	6.6727
52782	7.198
52783	4.3968
52784	3.7197
52785	3.9109
52786	4.622
52787	0.34154
52788	0.27421
52789	2.8253
52790	5.7431
52791	1.1306
52792	2.6928
52793	2.4802
52794	3.7544
52795	3.8844
52796	3.8109
52797	6.2146
52798	3.3658
52799	6.4245
52800	1.4167
52801	2.4787
52802	3.0458
52803	5.7435
52804	2.0113
52805	4.0039
52806	6.1737
52807	3.0753
52808	6.1515
52809	2.2124
52810	3.7537
52811	3.8613
52812	4.6967
52813	7.6385
52814	7.922
52815	8.8699
52816	8.6884
52817	6.3614
52818	4.2791
52819	7.7588
52820	9.7224
52821	11.696
52822	8.7535
52823	9.127
52824	6.4222
52825	2.2638
52826	0.62575
52827	7.7281
52828	5.3757
52829	0.38747
52830	6.6673
52831	12.071
52832	11.754
52833	0.69882
52834	1.5967
52835	5.2606
52836	5.3076
52837	11.702
52838	4.4533
52839	2.6386
52840	2.566
52841	0.2755
52842	3.9198
52843	9.7541
52844	6.3226
52845	6.7453
52846	6.4541
52847	1.6354
52848	3.6212
52849	7.0595
52850	6.3474
52851	10.551
52852	6.4208
52853	3.0416
52854	1.5609
52855	6.8395
52856	1.1075
52857	0.62983
52858	0.58431
52859	6.0394
52860	0.81575
52861	7.0711
52862	1.0502
52863	7.0918
52864	1.3338
52865	0.85536
52866	4.1386
52867	6.4168
52868	2.1851
52869	5.9755
52870	0.61573
52871	4.7998
52872	5.1066
52873	5.7242
52874	2.6418
52875	4.5609
52876	4.3969
52877	3.1154
52878	2.2165
52879	2.545
52880	2.2762
52881	18.654
52882	3.7663
52883	3.7714
52884	2.6218
52885	5.9298
52886	7.0474
52887	8.7143
52888	4.1755
52889	1.0724
52890	2.7711
52891	4.8893
52892	5.43
52893	5.4723
52894	4.9387
52895	5.1844
52896	1.3344
52897	18.659
52898	10.558
52899	6.3796
52900	7.0072
52901	6.8252
52902	6.8982
52903	6.6816
52904	6.6333
52905	6.7954
52906	6.642
52907	3.3401
52908	10.446
52909	8.1394
52910	8.4778
52911	10.101
52912	9.8292
52913	2.0512
52914	7.7459
52915	16.737
52916	18.142
52917	8.0224
52918	1.9388
52919	1.6441
52920	3.5735
52921	7.8417
52922	3.7866
52923	10.704
52924	9.6334
52925	11.335
52926	9.1025
52927	9.8127
52928	8.7931
52929	8.2012
52930	9.4329
52931	0.73047
52932	3.2695
52933	3.1483
52934	10.273
52935	2.2428
52936	3.1093
52937	3.9984
52938	6.261
52939	2.6797
52940	1.0567
52941	6.3722
52942	0.891
52943	2.0118
52944	0.85249
52945	1.0949
52946	4.0011
52947	0.69009
52948	3.4457
52949	9.9894
52950	3.7537
52951	4.5208
52952	3.1305
52953	8.5517
52954	10.3
52955	4.1603
52956	4.9669
52957	3.4222
52958	4.3815
52959	0.43539
52960	13.407
52961	2.6338
52962	1.3205
52963	0.52022
52964	3.3682
52965	7.3056
52966	0.59905
52967	0.69193
52968	6.5763
52969	7.054
52970	3.7917
52971	4.5171
52972	7.7576
52973	6.7929
52974	6.6091
52975	6.6152
52976	3.4409
52977	2.8983
52978	4.8103
52979	2.5524
52980	3.02
52981	2.6142
52982	3.2128
52983	2.2426
52984	2.114
52985	7.3287
52986	9.0852
52987	1.1644
52988	4.7525
52989	6.7861
52990	3.3437
52991	9.6371
52992	8.3351
52993	0.49792
52994	0.24814
52995	6.8978
52996	12.395
52997	10.383
52998	10.375
52999	0.9795
53000	9.0331
53001	1.507
53002	3.8232
53003	1.3449
53004	2.2558
53005	13.659
53006	5.1019
53007	5.7004
53008	1.3305
53009	4.1716
53010	0.4366
53011	12.758
53012	12.617
53013	13.531
53014	13.439
53015	11.772
53016	12.268
53017	12.214
53018	10.924
53019	5.4156
53020	1.1785
53021	7.5577
53022	7.8009
53023	5.3792
53024	11.672
53025	11.758
53026	3.1393
53027	3.3256
53028	7.5175
53029	6.5405
53030	3.5249
53031	3.3972
53032	5.8443
53033	5.7127
53034	1.5214
53035	1.5645
53036	1.4918
53037	5.7323
53038	6.7744
53039	5.562
53040	5.7205
53041	6.0301
53042	5.9917
53043	11.897
53044	11.354
53045	11.936
53046	12.247
53047	10.995
53048	12.685
53049	12.459
53050	12.279
53051	13.082
53052	9.315
53053	8.7898
53054	9.2505
53055	10.925
53056	12.216
53057	15.661
53058	2.5375
53059	2.3652
53060	8.5958
53061	3.1577
53062	2.7381
53063	5.4604
53064	4.0444
53065	8.215
53066	8.5313
53067	3.2237
53068	3.5526
53069	0.79004
53070	0.76903
53071	11.894
53072	11.477
53073	4.2722
53074	4.8538
53075	9.8785
53076	5.6453
53077	6.0688
53078	3.9833
53079	4.4398
53080	1.3092
53081	1.3114
53082	1.3017
53083	1.3062
53084	4.8314
53085	4.6372
53086	13.142
53087	13.505
53088	12.159
53089	11.809
53090	11.775
53091	2.2047
53092	12.413
53093	4.0577
53094	4.3873
53095	4.4728
53096	4.5957
53097	1.5765
53098	1.7166
53099	1.8412
53100	1.7201
53101	6.6717
53102	8.6769
53103	8.8963
53104	7.1577
53105	5.4796
53106	6.9192
53107	11.251
53108	12.175
53109	5.8251
53110	6.0788
53111	8.6181
53112	9.6251
53113	11.671
53114	11.758
53115	4.6949
53116	4.9188
53117	5.7461
53118	5.5516
53119	6.117
53120	1.0081
53121	0.79911
53122	3.2125
53123	2.8347
53124	3.1718
53125	5.6186
53126	5.4959
53127	2.5236
53128	2.3616
53129	2.267
53130	2.1166
53131	6.057
53132	6.2633
53133	3.7917
53134	5.6234
53135	5.5043
53136	0.9432
53137	0.95409
53138	0.77752
53139	5.9408
53140	6.5922
53141	6.3673
53142	6.165
53143	2.428
53144	2.4533
53145	12.622
53146	12.844
53147	12.966
53148	4.385
53149	4.2441
53150	5.3799
53151	4.038
53152	4.1399
53153	0.83678
53154	0.88214
53155	11.639
53156	11.845
53157	5.8238
53158	6.1977
53159	11.652
53160	3.4412
53161	3.4911
53162	2.1984
53163	1.9831
53164	2.1605
53165	1.9663
53166	1.1375
53167	1.1417
53168	1.223
53169	1.2676
53170	5.7462
53171	5.3907
53172	4.7098
53173	16.968
53174	5.5191
53175	4.8838
53176	5.1378
53177	5.3649
53178	12.008
53179	11.476
53180	13.671
53181	1.1301
53182	1.1263
53183	1.1624
53184	1.116
53185	4.1175
53186	3.7748
53187	2.5821
53188	11.118
53189	12.079
53190	11.038
53191	12.122
53192	12.136
53193	10.936
53194	11.013
53195	12.183
53196	5.857
53197	5.8533
53198	2.6272
53199	6.5255
53200	6.4968
53201	3.2631
53202	3.2396
53203	1.3573
53204	1.2813
53205	1.3377
53206	3.505
53207	2.9802
53208	3.1178
53209	3.5017
53210	2.8599
53211	3.1635
53212	4.1999
53213	4.8109
53214	3.0432
53215	3.1753
53216	3.5368
53217	3.6248
53218	0.8958
53219	0.78811
53220	6.1698
53221	6.2003
53222	2.6414
53223	3.1078
53224	1.2839
53225	5.3232
53226	6.0721
53227	6.092
53228	2.2439
53229	2.6294
53230	2.0183
53231	2.3433
53232	0.72484
53233	0.71059
53234	0.75233
53235	0.76032
53236	4.3476
53237	3.9883
53238	2.428
53239	6.1791
53240	5.7985
53241	5.7737
53242	6.9405
53243	4.5464
53244	4.2098
53245	7.368
53246	7.6796
53247	6.9709
53248	6.3172
53249	3.0887
53250	3.0253
53251	5.9399
53252	0.4667
53253	0.47071
53254	0.87784
53255	1.0685
53256	1.0655
53257	1.4761
53258	1.6022
53259	5.7744
53260	5.797
53261	4.6172
53262	4.5645
53263	5.8259
53264	2.038
53265	2.0054
53266	8.9563
53267	7.7426
53268	16.559
53269	17.583
53270	1.3418
53271	1.3911
53272	1.313
53273	1.7902
53274	1.8546
53275	1.2268
53276	1.255
53277	2.267
53278	1.7346
53279	15.638
53280	14.188
53281	1.7249
53282	1.8307
53283	1.4278
53284	1.5125
53285	6.1777
53286	6.1696
53287	3.0171
53288	1.7314
53289	1.7508
53290	6.478
53291	7.4584
53292	0.16324
53293	5.4828
53294	5.7655
53295	5.2283
53296	5.0402
53297	2.5644
53298	2.7097
53299	2.4093
53300	2.2706
53301	2.4323
53302	2.3486
53303	0.75903
53304	0.67903
53305	0.73759
53306	0.67089
53307	0.10088
53308	0.15909
53309	3.7397
53310	3.3988
53311	5.2412
53312	5.5607
53313	2.3902
53314	2.7811
53315	1.4398
53316	1.6769
53317	1.2344
53318	8.541
53319	2.4106
53320	2.1877
53321	2.373
53322	2.3773
53323	4.0418
53324	4.395
53325	4.0482
53326	3.7841
53327	3.2989
53328	3.1421
53329	2.076
53330	2.0217
53331	2.187
53332	1.1117
53333	1.157
53334	2.1271
53335	4.1365
53336	4.1643
53337	4.7836
53338	4.8231
53339	2.4323
53340	2.5381
53341	6.8865
53342	12.107
53343	4.3815
53344	3.3457
53345	3.1721
53346	5.6059
53347	1.652
53348	1.7188
53349	1.5182
53350	1.7209
53351	1.1516
53352	1.2051
53353	0.97215
53354	0.99927
53355	1.2843
53356	1.4675
53357	0.91956
53358	0.87344
53359	0.94088
53360	0.90739
53361	0.94617
53362	0.97517
53363	1.0196
53364	1.029
53365	1.0069
53366	0.92827
53367	2.2721
53368	3.03
53369	5.1025
53370	4.6476
53371	4.2095
53372	4.2375
53373	4.6034
53374	4.0822
53375	1.1792
53376	1.0134
53377	1.9435
53378	1.9397
53379	1.3086
53380	1.3454
53381	1.2056
53382	1.2356
53383	1.8129
53384	1.7187
53385	1.5809
53386	1.4852
53387	1.5305
53388	1.6978
53389	1.7366
53390	1.81
53391	1.137
53392	1.1132
53393	1.8267
53394	1.5137
53395	1.3959
53396	1.4239
53397	1.7617
53398	1.5254
53399	1.0218
53400	1.0285
53401	1.3682
53402	1.1862
53403	1.3409
53404	1.1933
53405	2.0694
53406	1.8338
53407	0.16723
53408	0.23128
53409	0.19399
53410	0.14879
53411	0.91678
53412	0.90758
53413	1.007
53414	0.9511
53415	1.6356
53416	1.5055
53417	3.0105
53418	2.8718
53419	1.3899
53420	1.3874
53421	1.5752
53422	1.5893
53423	2.258
53424	2.5763
53425	1.9217
53426	1.834
53427	1.7008
53428	1.6505
53429	1.7858
53430	1.6466
53431	1.3254
53432	1.473
53433	1.052
53434	1.2404
53435	1.714
53436	2.4189
53437	1.328
53438	1.305
53439	0.4806
53440	0.55244
53441	1.1167
53442	1.2152
53443	0.44149
53444	0.44574
53445	0.80615
53446	0.79583
53447	0.85131
53448	0.87251
53449	0.78382
53450	0.8256
53451	1.5826
53452	1.5088
53453	1.7806
53454	1.7051
53455	1.7662
53456	1.5781
53457	0.9559
53458	1.1995
53459	2.2427
53460	2.0144
53461	0.32125
53462	0.32404
53463	1.7727
53464	1.5758
53465	1.668
53466	1.5466
53467	0.64317
53468	0.67269
53469	0.63899
53470	0.60556
53471	0.34328
53472	0.39475
53473	7.2753
53474	7.6454
53475	5.9013
53476	5.6823
53477	3.4003
53478	4.0604
53479	2.4064
53480	1.1593
53481	1.1227
53482	1.1339
53483	0.82463
53484	1.0055
53485	0.21164
53486	0.27935
53487	0.20293
53488	0.27329
53489	1.7169
53490	1.7643
53491	1.6764
53492	1.777
53493	6.5636
53494	6.7546
53495	2.8969
53496	3.3326
53497	4.9173e-002
53498	7.6869e-002
53499	0.25707
53500	0.19551
53501	1.0592
53502	0.92191
53503	0.64021
53504	0.73366
53505	0.80949
53506	0.81703
53507	0.8804
53508	0.81879
53509	5.3811
53510	5.7291
53511	0.46826
53512	0.47547
53513	0.49558
53514	0.51083
53515	0.74256
53516	0.64685
53517	0.63444
53518	0.69516
53519	0.88796
53520	0.9959
53521	2.422
53522	2.4529
53523	3.7294
53524	3.0589
53525	6.0732
53526	5.6818
53527	6.1817
53528	6.7683
53529	5.6446
53530	6.0607
53531	4.0257
53532	3.3994
53533	2.6172
53534	3.0446
53535	2.9189
53536	2.8753
53537	1.728
53538	2.2949
53539	2.5049
53540	2.3664
53541	3.4565
53542	3.2435
53543	1.745
53544	1.5785
53545	1.6275
53546	1.4746
53547	5.2687
53548	4.9725
53549	4.7354
53550	4.8897
53551	0.19979
53552	0.31498
53553	3.1517
53554	2.9955
53555	4.3486
53556	3.6969
53557	4.0354
53558	3.6947
53559	1.2605
53560	1.2945
53561	1.0114
53562	1.1512
53563	1.3565
53564	1.8594
53565	1.6378
53566	1.435
53567	1.3709
53568	1.4445
53569	1.2505
53570	1.8305
53571	1.7839
53572	1.7057
53573	1.6425
53574	2.264
53575	2.0716
53576	2.116
53577	2.5307
53578	5.997
53579	6.2845
53580	6.0848
53581	6.3974
53582	5.1429
53583	4.9574
53584	2.7517
53585	2.8937
53586	2.1589
53587	2.4666
53588	8.9511
53589	8.8977
53590	9.8664
53591	9.473
53592	1.4768
53593	1.504
53594	3.4436
53595	4.4346
53596	12.665
53597	14.49
53598	8.1093
53599	8.0388
53600	11.465
53601	12.175
53602	5.4651
53603	5.4649
53604	1.3652
53605	1.4051
53606	1.3991
53607	1.405
53608	0.77267
53609	0.96777
53610	1.0736
53611	1.1614
53612	0.44517
53613	0.55268
53614	3.4123
53615	3.8753
53616	3.6617
53617	4.3253
53618	4.5435
53619	4.0867
53620	4.1995
53621	7.0056
53622	6.7387
53623	7.682
53624	7.3658
53625	3.8615
53626	2.9932
53627	2.6861
53628	2.5566
53629	2.457
53630	2.3169
53631	3.2877
53632	2.8838
53633	3.5242
53634	3.4046
53635	3.11
53636	3.9063
53637	3.5401
53638	7.2646
53639	5.298
53640	4.5415
53641	5.4756
53642	3.8199
53643	3.5634
53644	5.0421
53645	5.6603
53646	0.76855
53647	0.88732
53648	0.92866
53649	1.2286
53650	0.83937
53651	0.77656
53652	0.7637
53653	0.7369
53654	0.98893
53655	0.97054
53656	2.8002
53657	3.5911
53658	4.0379
53659	3.0863
53660	2.6841
53661	4.0968
53662	3.8075
53663	3.7502
53664	4.8804
53665	9.5752
53666	7.3815
53667	4.7559
53668	5.6054
53669	2.7754
53670	3.1131
53671	2.2615
53672	2.3149
53673	1.6619
53674	1.8549
53675	4.9832
53676	5.6148
53677	1.8126
53678	1.788
53679	1.7286
53680	1.7937
53681	1.356
53682	0.98661
53683	6.1281
53684	6.0106
53685	6.146
53686	6.2298
53687	6.4982
53688	6.3812
53689	5.8776
53690	6.0745
53691	1.6743
53692	1.9647
53693	0.67313
53694	0.78247
53695	0.81293
53696	3.6412
53697	3.8286
53698	5.8837
53699	5.1478
53700	0.37022
53701	0.36686
53702	0.38411
53703	0.38888
53704	0.35304
53705	0.36791
53706	0.71694
53707	0.66213
53708	0.60478
53709	0.6044
53710	0.49202
53711	0.52655
53712	0.47971
53713	0.40456
53714	0.74449
53715	0.80502
53716	3.711
53717	3.3963
53718	3.4467
53719	4.3202
53720	3.4002
53721	3.1055
53722	3.2859
53723	6.1947
53724	6.4356
53725	4.0295
53726	4.5179
53727	0.91168
53728	0.89834
53729	1.7738
53730	1.6926
53731	0.30697
53732	0.46844
53733	0.56642
53734	0.16336
53735	0.27417
53736	1.1741
53737	1.2974
53738	0.89356
53739	0.93452
53740	0.70197
53741	0.84514
53742	0.59785
53743	0.56093
53744	4.4062
53745	5.17
53746	6.4966
53747	5.4383
53748	1.3925
53749	1.5667
53750	2.7433
53751	2.4196
53752	2.7817
53753	2.8002
53754	3.5125
53755	3.1733
53756	1.971
53757	1.8717
53758	2.5736
53759	2.1834
53760	1.5879
53761	1.7585
53762	1.6313
53763	1.3913
53764	1.652
53765	1.8192
53766	1.0875
53767	0.98041
53768	5.5077
53769	5.3795
53770	7.6154
53771	7.0861
53772	0.24982
53773	0.19658
53774	0.49641
53775	0.38059
53776	0.74827
53777	0.76495
53778	0.92214
53779	0.95568
53780	10.106
53781	9.9304
53782	4.1245
53783	4.4939
53784	0.50629
53785	0.64438
53786	0.68794
53787	0.63408
53788	0.51285
53789	0.75649
53790	0.6946
53791	0.88786
53792	0.86036
53793	0.7727
53794	0.79836
53795	0.79808
53796	0.8022
53797	0.81475
53798	1.9327
53799	2.1935
53800	9.2728
53801	8.4061
53802	0.92077
53803	0.88141
53804	1.1484
53805	0.99281
53806	6.6993
53807	7.3297
53808	7.49
53809	6.2719
53810	4.7558
53811	8.1226
53812	8.4783
53813	2.3026
53814	2.2987
53815	0.20066
53816	0.30995
53817	0.68612
53818	0.71339
53819	0.82753
53820	0.8142
53821	0.9672
53822	0.83254
53823	1.7685
53824	1.746
53825	5.4001
53826	5.3851
53827	5.6234
53828	5.625
53829	0.47706
53830	0.47775
53831	1.0745
53832	0.98028
53833	0.67298
53834	0.71081
53835	0.49853
53836	0.58416
53837	0.95385
53838	0.93901
53839	1.4464
53840	1.7249
53841	2.411
53842	2.6914
53843	3.604
53844	3.9306
53845	0.95181
53846	0.83504
53847	0.66471
53848	0.50449
53849	0.70308
53850	0.81952
53851	1.9481
53852	2.2495
53853	0.85447
53854	1.2169
53855	2.6407
53856	2.6296
53857	2.4458
53858	2.6144
53859	2.0651
53860	2.1766
53861	1.1274
53862	1.0097
53863	1.2489
53864	1.4927
53865	2.1077
53866	2.4036
53867	1.7224
53868	1.8763
53869	0.76763
53870	0.659
53871	0.90134
53872	0.95368
53873	0.69577
53874	0.51274
53875	1.2053
53876	0.72614
53877	0.81022
53878	1.2704
53879	1.1589
53880	1.0697
53881	1.1981
53882	0.12461
53883	0.14623
53884	4.3252e-002
53885	7.4713e-002
53886	5.2466
53887	4.4161
53888	0.88528
53889	0.90174
53890	3.3337
53891	3.2009
53892	1.2842
53893	1.9636
53894	1.8796
53895	2.3062
53896	2.24
53897	1.8738
53898	2.1447
53899	1.7824
53900	2.0067
53901	2.3452
53902	3.4221
53903	3.4812
53904	3.9496
53905	4.8576
53906	3.13
53907	3.3549
53908	0.75094
53909	0.82754
53910	0.88158
53911	1.1214
53912	5.1937
53913	5.1936
53914	6.443
53915	5.9351
53916	4.1778
53917	4.146
53918	4.0956
53919	4.1104
53920	3.1096
53921	3.2964
53922	3.9359
53923	3.9177
53924	0.83101
53925	0.80788
53926	0.73073
53927	0.8731
53928	1.216
53929	0.34477
53930	0.45328
53931	0.18507
53932	0.22843
53933	0.83634
53934	0.91814
53935	0.71598
53936	0.64002
53937	0.58028
53938	0.53459
53939	0.58164
53940	0.64863
53941	0.41634
53942	0.45889
53943	3.2812
53944	3.4761
53945	0.79728
53946	0.70824
53947	0.75639
53948	0.71863
53949	1.0022
53950	1.0179
53951	1.908
53952	2.1186
53953	2.9022
53954	3.7495
53955	3.5008
53956	3.2946
53957	1.6617
53958	1.7004
53959	0.40819
53960	0.43991
53961	0.41017
53962	0.40883
53963	1.6795
53964	1.5147
53965	0.91858
53966	0.85783
53967	1.0305
53968	0.87854
53969	0.92054
53970	0.92062
53971	0.98527
53972	0.80218
53973	0.73376
53974	0.60684
53975	0.61882
53976	0.96525
53977	1.5705
53978	2.6619
53979	2.5059
53980	2.6437
53981	2.9961
53982	1.6554
53983	1.046
53984	1.2218
53985	1.3874
53986	1.274
53987	1.158
53988	1.1878
53989	1.1982
53990	1.0777
53991	0.95571
53992	6.3892
53993	4.271
53994	4.9059
53995	6.5135
53996	6.3304
53997	5.6412
53998	5.3329
53999	2.6959
54000	2.4436
54001	1.9679
54002	2.187
54003	2.3015
54004	2.5969
54005	5.3216
54006	6.9156
54007	8.4312
54008	8.4118
54009	3.2257
54010	4.3019
54011	2.2678
54012	2.4689
54013	1.3982
54014	0.98534
54015	1.8013
54016	1.7199
54017	2.0304
54018	2.0917
54019	0.99205
54020	1.2738
54021	1.6767
54022	1.7732
54023	1.993
54024	1.6402
54025	1.6837
54026	3.733
54027	3.0077
54028	2.1374
54029	1.6808
54030	2.5861
54031	2.7412
54032	0.30703
54033	0.28857
54034	0.30286
54035	0.33397
54036	0.51493
54037	0.40167
54038	0.50259
54039	0.70731
54040	0.62125
54041	4.2921
54042	3.2316
54043	2.4225
54044	2.4113
54045	1.1768
54046	1.0806
54047	2.3411
54048	2.0538
54049	1.9794
54050	1.7082
54051	2.3469
54052	2.6981
54053	3.2866
54054	4.4626
54055	2.6117
54056	2.3269
54057	1.7852
54058	1.6799
54059	1.6832
54060	1.7192
54061	7.5935
54062	8.3217
54063	5.761
54064	5.734
54065	4.9209
54066	6.0223
54067	6.5412
54068	5.7121
54069	3.7426
54070	4.0236
54071	3.315
54072	3.1853
54073	1.0287
54074	0.93895
54075	0.7054
54076	0.76709
54077	0.69526
54078	0.69286
54079	0.98109
54080	0.96186
54081	0.82479
54082	0.75284
54083	0.31867
54084	0.28758
54085	0.54011
54086	0.73341
54087	0.18416
54088	0.26523
54089	0.97821
54090	0.95628
54091	0.84404
54092	0.80518
54093	2.6501
54094	2.4288
54095	3.0638
54096	2.9192
54097	3.1203
54098	3.2964
54099	2.4392
54100	1.9119
54101	1.2115
54102	1.3278
54103	1.2807
54104	1.6366
54105	1.7917
54106	1.6289
54107	1.2848
54108	1.2044
54109	2.266
54110	2.341
54111	3.8843
54112	4.0674
54113	5.7074
54114	6.2609
54115	2.9744
54116	2.5448
54117	4.7378
54118	4.7646
54119	1.7647
54120	1.4037
54121	3.991
54122	3.896
54123	4.4316
54124	4.6332
54125	0.80436
54126	0.83523
54127	4.6825
54128	4.8769
54129	3.4058
54130	3.7539
54131	15.
54132	15.011
54133	2.4239
54134	2.0449
54135	3.237
54136	3.0539
54137	2.7549
54138	2.7268
54139	4.1713
54140	3.9707
54141	1.9239
54142	2.4118
54143	1.4234
54144	1.3041
54145	1.2249
54146	1.4681
54147	2.8984
54148	3.0936
54149	2.9564
54150	2.4037
54151	2.4806
54152	1.9844
54153	6.4825
54154	5.8845
54155	5.6724
54156	4.6739
54157	1.7312
54158	1.7633
54159	2.548
54160	2.6956
54161	2.5082
54162	2.727
54163	1.6115
54164	1.6436
54165	1.4693
54166	1.5207
54167	1.3637
54168	1.4368
54169	2.5961
54170	2.8944
54171	3.0839
54172	3.4316
54173	2.5844
54174	3.1102
54175	0.56523
54176	0.59673
54177	0.55717
54178	0.52149
54179	0.80616
54180	0.78652
54181	1.4748
54182	1.2731
54183	2.2271
54184	3.0272
54185	1.6091
54186	1.0198
54187	1.6523
54188	1.4753
54189	2.77
54190	2.4611
54191	2.6645
54192	2.7438
54193	6.4346
54194	6.2458
54195	5.754
54196	5.775
54197	6.2233
54198	6.1848
54199	6.8657
54200	7.0189
54201	7.0188
54202	0.1416
54203	6.1936e-002
54204	0.36647
54205	0.45865
54206	0.25256
54207	0.19747
54208	0.54844
54209	0.41741
54210	0.20362
54211	0.25068
54212	3.354
54213	2.9777
54214	3.0634
54215	3.2736
54216	1.2187
54217	1.4112
54218	5.6394
54219	4.8526
54220	5.5054
54221	5.7374
54222	5.1742
54223	4.8813
54224	8.1727
54225	8.7259
54226	6.4622
54227	6.988
54228	3.8951
54229	4.3899
54230	5.6568
54231	5.6505
54232	5.7921
54233	2.8827
54234	2.734
54235	2.859
54236	2.913
54237	0.99818
54238	1.1197
54239	1.0602
54240	1.4487
54241	1.3679
54242	1.2644
54243	1.2607
54244	1.3648
54245	1.4224
54246	0.2345
54247	0.21572
54248	0.10672
54249	0.14015
54250	5.8623
54251	5.8561
54252	5.1745
54253	5.2731
54254	2.311
54255	2.7093
54256	1.7368
54257	1.3031
54258	0.83308
54259	0.80482
54260	1.2379
54261	1.2193
54262	1.5367
54263	1.4367
54264	1.622
54265	1.5264
54266	1.3949
54267	1.353
54268	1.5404
54269	1.4744
54270	1.6891
54271	1.75
54272	1.1478
54273	1.2955
54274	2.6574
54275	2.4091
54276	1.1153
54277	1.1868
54278	1.3814
54279	1.5844
54280	1.9436
54281	1.7399
54282	0.73078
54283	0.79579
54284	0.8453
54285	0.85119
54286	1.5262
54287	1.4648
54288	2.6618
54289	2.8137
54290	1.0134
54291	0.86441
54292	1.5015
54293	2.0204
54294	0.63836
54295	0.72336
54296	0.90594
54297	0.68453
54298	0.61422
54299	1.5767
54300	1.4606
54301	1.711
54302	1.8498
54303	2.4494
54304	2.9101
54305	3.8173
54306	3.5254
54307	2.7511
54308	2.6232
54309	2.3873
54310	3.0232
54311	2.0026
54312	1.8079
54313	1.6192
54314	1.7212
54315	0.64206
54316	0.63799
54317	0.33845
54318	0.29069
54319	0.22192
54320	0.21579
54321	6.4935
54322	5.195
54323	4.1782
54324	5.2518
54325	1.0633
54326	0.792
54327	2.1584
54328	2.3687
54329	1.6826
54330	1.8093
54331	1.033
54332	1.3537
54333	1.361
54334	2.3516
54335	1.975
54336	2.7873
54337	2.1122
54338	1.8834
54339	1.466
54340	1.9318
54341	2.6636
54342	1.4171
54343	1.1353
54344	2.714
54345	3.0892
54346	1.712
54347	1.6973
54348	4.0572
54349	4.5021
54350	1.401
54351	1.327
54352	1.1005
54353	1.2625
54354	1.6897
54355	1.9566
54356	1.4265
54357	1.55
54358	1.4068
54359	1.4677
54360	1.5251
54361	1.618
54362	1.0257
54363	1.1463
54364	2.3243
54365	2.1797
54366	1.9796
54367	1.9891
54368	1.9455
54369	2.2504
54370	1.8028
54371	2.0478
54372	1.8268
54373	2.1024
54374	0.88358
54375	0.99062
54376	0.96493
54377	0.92408
54378	1.2725
54379	1.4284
54380	1.7964
54381	2.4032
54382	2.3181
54383	2.813
54384	2.3312
54385	2.9931
54386	3.036
54387	2.9015
54388	2.3266
54389	2.4162
54390	3.2404
54391	4.4311
54392	0.3176
54393	0.38419
54394	0.40436
54395	0.33803
54396	0.82467
54397	0.7652
54398	0.75283
54399	0.77946
54400	0.82562
54401	0.52139
54402	0.51002
54403	0.59771
54404	0.60343
54405	0.80184
54406	0.70572
54407	0.69998
54408	0.76808
54409	0.80572
54410	0.70149
54411	0.70634
54412	1.3013
54413	0.99696
54414	1.4368
54415	1.5064
54416	1.4516
54417	1.5946
54418	1.6926
54419	1.4543
54420	1.3318
54421	1.3457
54422	1.1336
54423	1.1986
54424	1.1489
54425	1.0507
54426	1.8673
54427	1.7328
54428	1.4494
54429	1.5994
54430	1.6292
54431	1.9354
54432	1.8143
54433	2.0025
54434	1.8189
54435	2.1452
54436	1.4913
54437	1.7367
54438	1.3857
54439	1.5888
54440	3.5965
54441	3.2311
54442	2.8227
54443	2.6467
54444	1.5194
54445	1.498
54446	1.4759
54447	0.95346
54448	1.1273
54449	4.7228
54450	4.4934
54451	0.70643
54452	0.63587
54453	0.68597
54454	0.74533
54455	1.731
54456	1.4835
54457	1.1431
54458	1.1668
54459	1.6634
54460	1.3951
54461	0.81858
54462	0.97464
54463	10.942
54464	11.193
54465	0.80473
54466	0.75755
54467	0.47296
54468	0.53529
54469	0.58998
54470	0.60461
54471	2.5809
54472	3.0331
54473	2.6554
54474	2.6257
54475	5.4973
54476	5.7882
54477	0.52187
54478	0.52607
54479	0.43895
54480	0.36286
54481	0.8536
54482	0.79068
54483	1.0187
54484	0.95439
54485	1.0506
54486	0.91665
54487	0.9467
54488	1.6618
54489	1.7335
54490	5.5768
54491	4.8081
54492	15.933
54493	15.554
54494	15.553
54495	15.933
54496	14.183
54497	14.182
54498	2.69
54499	2.5294
54500	5.0775
54501	6.6706
54502	6.9681
54503	5.4019
54504	5.4019
54505	0.92833
54506	0.80887
54507	0.9922
54508	1.5711
54509	1.7384
54510	1.3145
54511	0.30649
54512	0.30619
54513	12.336
54514	12.383
54515	2.6241
54516	1.8891
54517	6.5406
54518	6.428
54519	6.4243
54520	6.5316
54521	6.5813
54522	6.5779
54523	5.7222
54524	5.7522
54525	5.7164
54526	1.2266
54527	1.0856
54528	1.1751
54529	1.3818
54530	0.91233
54531	0.95684
54532	1.069
54533	0.6526
54534	0.53308
54535	2.0303
54536	2.5252
54537	2.8616
54538	3.51
54539	1.0241
54540	1.0455
54541	0.97672
54542	0.86626
54543	9.0727
54544	3.2705
54545	2.4512
54546	0.17411
54547	0.12417
54548	3.7331
54549	3.9778
54550	5.0394
54551	4.4031
54552	4.5716
54553	4.2894
54554	0.32356
54555	0.30308
54556	0.30535
54557	0.30597
54558	0.62961
54559	0.70718
54560	1.023
54561	0.97553
54562	1.0148
54563	1.2176
54564	0.36403
54565	0.54647
54566	1.6667
54567	1.6354
54568	2.2394
54569	1.9501
54570	2.2095
54571	1.8833
54572	0.92951
54573	0.94547
54574	0.73656
54575	0.72502
54576	0.47122
54577	0.4952
54578	2.3969
54579	2.0502
54580	2.0099
54581	2.3932
54582	1.7586
54583	2.0489
54584	1.5421
54585	1.5955
54586	3.7573
54587	3.2744
54588	2.257
54589	2.2484
54590	2.5488
54591	2.4918
54592	2.0707
54593	1.9065
54594	1.8286
54595	2.2734
54596	4.6185
54597	4.617
54598	10.846
54599	10.842
54600	2.6751
54601	2.5885
54602	0.23782
54603	0.33232
54604	5.1234
54605	3.9142
54606	3.1205
54607	2.8265
54608	2.3673
54609	2.1858
54610	2.4782
54611	2.693
54612	0.26443
54613	0.25126
54614	0.17491
54615	0.15117
54616	6.8247
54617	7.2421
54618	2.5214
54619	3.0814
54620	2.138
54621	2.622
54622	1.1147
54623	1.3449
54624	0.70145
54625	0.75934
54626	0.58906
54627	0.59713
54628	0.341
54629	0.27689
54630	0.29687
54631	0.41877
54632	0.43032
54633	0.46771
54634	0.47087
54635	0.29416
54636	0.28773
54637	0.35562
54638	0.33265
54639	0.20472
54640	0.19525
54641	10.856
54642	10.671
54643	11.147
54644	11.147
54645	10.672
54646	10.856
54647	11.214
54648	11.214
54649	0.98706
54650	0.9109
54651	1.145
54652	1.1282
54653	2.006
54654	2.825
54655	0.65444
54656	0.72285
54657	7.1187
54658	5.2243
54659	12.456
54660	12.371
54661	11.376
54662	11.721
54663	2.9918
54664	4.0212
54665	2.1103
54666	2.3374
54667	3.1515
54668	3.1806
54669	2.5075
54670	2.2364
54671	3.1946
54672	3.1865
54673	2.707
54674	2.6501
54675	2.6002
54676	2.9433
54677	0.65269
54678	0.683
54679	3.2723
54680	2.969
54681	2.3408
54682	2.1973
54683	2.7433
54684	2.7998
54685	3.9702
54686	3.5094
54687	2.5579
54688	2.4199
54689	2.5691
54690	2.5734
54691	0.86258
54692	0.79869
54693	1.1894
54694	1.0918
54695	0.98901
54696	1.0458
54697	1.0627
54698	1.1599
54699	1.5712
54700	1.5354
54701	1.4532
54702	1.562
54703	1.6016
54704	1.5167
54705	1.2486
54706	1.0719
54707	0.11868
54708	0.1488
54709	4.5801e-002
54710	2.5501e-002
54711	9.3104e-002
54712	5.7112e-002
54713	0.12884
54714	7.8796e-002
54715	4.3812
54716	3.9629
54717	3.9641
54718	4.0158
54719	4.6479
54720	4.649
54721	3.4593
54722	3.331
54723	1.9719
54724	1.8433
54725	3.2829
54726	2.8883
54727	6.4776
54728	6.4779
54729	6.4505
54730	6.4504
54731	5.5978
54732	5.5982
54733	2.6225
54734	2.552
54735	4.2785
54736	3.9564
54737	2.0919
54738	2.0985
54739	5.3018
54740	4.9241
54741	0.59145
54742	0.61023
54743	1.5049
54744	1.3769
54745	1.2957
54746	1.1544
54747	2.3591
54748	2.2571
54749	1.5739
54750	1.3993
54751	0.90544
54752	0.84519
54753	1.0919
54754	1.0353
54755	0.50754
54756	0.50074
54757	1.275
54758	1.7727
54759	0.63911
54760	0.64477
54761	0.81481
54762	0.7647
54763	3.3623
54764	3.4703
54765	2.8288
54766	2.828
54767	4.1395
54768	3.8959
54769	3.7502
54770	3.6894
54771	1.4241
54772	1.4617
54773	8.1622e-002
54774	5.9851e-002
54775	0.6171
54776	0.70502
54777	1.1676
54778	1.0061
54779	17.198
54780	14.577
54781	15.067
54782	12.229
54783	12.04
54784	12.162
54785	0.33179
54786	0.3957
54787	0.51796
54788	0.49003
54789	6.1176
54790	6.285
54791	6.3976
54792	6.8634
54793	6.9156
54794	6.3667
54795	2.2565
54796	1.9541
54797	4.1468
54798	4.4096
54799	4.0328
54800	4.5506
54801	0.21397
54802	0.11747
54803	0.15522
54804	0.25156
54805	0.80441
54806	0.83042
54807	0.85216
54808	0.97416
54809	0.77802
54810	0.78408
54811	2.6656
54812	3.2633
54813	2.8609
54814	4.0038
54815	1.8075
54816	1.955
54817	1.6573
54818	1.6485
54819	2.5302
54820	2.5974
54821	1.2968
54822	1.4174
54823	1.1459
54824	1.1648
54825	13.084
54826	12.679
54827	12.674
54828	13.074
54829	12.6
54830	12.596
54831	11.084
54832	11.103
54833	0.95056
54834	0.90544
54835	1.2618
54836	1.4588
54837	0.90297
54838	1.1409
54839	1.0478
54840	1.0766
54841	1.711
54842	2.1681
54843	4.06
54844	4.1897
54845	3.818
54846	4.1652
54847	0.60489
54848	0.58503
54849	1.1737
54850	1.2659
54851	2.2792
54852	2.3919
54853	1.6691
54854	1.5852
54855	1.804
54856	1.3353
54857	1.6821
54858	2.1396
54859	1.7937
54860	2.1079
54861	1.597
54862	1.5343
54863	0.92885
54864	0.84061
54865	0.55566
54866	0.57508
54867	7.8921
54868	7.158
54869	4.3965
54870	5.0669
54871	3.9722
54872	3.609
54873	4.7505
54874	5.1725
54875	4.949
54876	4.8076
54877	4.0726
54878	4.8035
54879	3.0404
54880	3.3286
54881	2.6521
54882	2.6091
54883	2.7836
54884	2.9081
54885	3.2491
54886	3.2583
54887	3.2496
54888	3.1969
54889	0.76209
54890	0.53384
54891	1.1688
54892	1.2609
54893	2.5602
54894	4.5728
54895	4.7803
54896	3.6506
54897	3.1833
54898	2.612
54899	3.2954
54900	3.5722
54901	3.7397
54902	3.8387
54903	3.0959
54904	5.2183
54905	5.2704
54906	0.87275
54907	0.95253
54908	6.1424
54909	5.7294
54910	7.5161
54911	7.5169
54912	7.087
54913	7.1678
54914	6.3956
54915	6.0077
54916	5.6565
54917	5.6569
54918	1.6369
54919	1.8822
54920	0.98562
54921	1.1026
54922	0.81373
54923	0.66969
54924	1.1644
54925	1.1271
54926	6.7242
54927	6.8818
54928	6.4897
54929	6.4902
54930	4.0152
54931	3.8836
54932	1.39
54933	1.6818
54934	1.5907
54935	1.4138
54936	1.1238
54937	1.376
54938	0.71812
54939	0.93723
54940	0.84421
54941	0.96749
54942	1.0451
54943	1.2262
54944	5.0819
54945	5.7839
54946	3.4121
54947	3.6068
54948	5.0273
54949	4.5258
54950	1.9947
54951	1.523
54952	3.8331
54953	4.2099
54954	1.4644
54955	1.453
54956	1.272
54957	1.3261
54958	1.767
54959	2.1418
54960	1.684
54961	5.9464
54962	6.2014
54963	2.1595
54964	2.0637
54965	2.2589
54966	2.1858
54967	2.8132
54968	2.4724
54969	0.5497
54970	0.47809
54971	0.10913
54972	0.10615
54973	1.2248
54974	1.1627
54975	1.3501
54976	1.2385
54977	1.3351
54978	1.4561
54979	0.16483
54980	0.19941
54981	5.5236e-002
54982	8.204e-002
54983	9.66
54984	9.5553
54985	9.6555
54986	1.9515
54987	1.9608
54988	1.2081
54989	1.2092
54990	0.83915
54991	0.74459
54992	0.71409
54993	0.53691
54994	0.40261
54995	0.50133
54996	1.705
54997	1.601
54998	2.6943
54999	2.9918
55000	3.5362
55001	3.2961
55002	2.8351
55003	2.7545
55004	3.5628
55005	3.7343
55006	4.1786
55007	4.2972
55008	4.7906
55009	4.7915
55010	2.7328
55011	1.2947
55012	1.887
55013	2.7375
55014	2.6145
55015	3.9861
55016	3.6578
55017	5.5654
55018	4.6346
55019	5.7063
55020	5.2151
55021	4.6193
55022	4.0573
55023	3.5111
55024	3.2264
55025	3.1585
55026	3.5126
55027	5.5318
55028	6.413
55029	1.4781
55030	1.3601
55031	1.5311
55032	1.6562
55033	0.82977
55034	0.54036
55035	0.56704
55036	0.53733
55037	1.0635
55038	1.6366
55039	0.97987
55040	1.1741
55041	0.93801
55042	1.3658
55043	0.76432
55044	0.85133
55045	0.93484
55046	0.90004
55047	0.75435
55048	0.68176
55049	1.1261
55050	1.2437
55051	0.85227
55052	0.71126
55053	2.3129
55054	2.829
55055	2.4457
55056	2.3377
55057	2.2321
55058	2.2137
55059	2.6966
55060	2.733
55061	0.46754
55062	0.35894
55063	0.54863
55064	0.49515
55065	0.48589
55066	0.44242
55067	0.9461
55068	0.99728
55069	0.77045
55070	0.80735
55071	2.9337
55072	3.079
55073	3.75
55074	4.4341
55075	1.6617
55076	1.7557
55077	2.8587
55078	2.1763
55079	2.1602
55080	2.0761
55081	1.6762
55082	1.9676
55083	0.22073
55084	0.10027
55085	2.2538
55086	2.015
55087	0.72877
55088	0.60691
55089	0.40377
55090	0.42606
55091	3.0352
55092	2.6057
55093	4.3446
55094	4.7265
55095	4.6323
55096	1.0934
55097	0.99479
55098	1.203
55099	1.2093
55100	1.0319
55101	0.92379
55102	1.2134
55103	1.1848
55104	0.8494
55105	0.88489
55106	1.281
55107	1.1924
55108	0.77973
55109	0.69171
55110	1.6591
55111	1.541
55112	2.1857
55113	1.8956
55114	2.2102
55115	2.0442
55116	2.6036
55117	2.6013
55118	0.53331
55119	0.44889
55120	0.53814
55121	0.46989
55122	2.5541
55123	2.8196
55124	1.9909
55125	2.2259
55126	3.1701
55127	3.4649
55128	2.3422
55129	2.549
55130	2.6444
55131	2.6814
55132	0.9804
55133	1.1034
55134	1.2949
55135	1.2895
55136	0.81726
55137	1.2538
55138	0.95187
55139	0.5093
55140	0.87612
55141	0.87401
55142	1.2643
55143	1.2157
55144	1.1076
55145	0.8992
55146	2.8296
55147	2.6272
55148	3.1585
55149	3.1626
55150	3.3944
55151	3.0587
55152	2.9889
55153	4.3952
55154	3.9346
55155	1.8602
55156	1.645
55157	1.6808
55158	1.6025
55159	9.4131
55160	10.633
55161	8.4054
55162	7.0266
55163	9.4394
55164	10.665
55165	0.93777
55166	0.86087
55167	5.0187
55168	4.1792
55169	4.9062
55170	5.2259
55171	0.94359
55172	0.90003
55173	1.1588
55174	1.1678
55175	1.2786
55176	1.2925
55177	2.1943
55178	2.5108
55179	2.7877
55180	2.7619
55181	0.62328
55182	0.63482
55183	0.63663
55184	0.63838
55185	0.61276
55186	0.59294
55187	0.65524
55188	0.65516
55189	0.35051
55190	0.35881
55191	0.52246
55192	0.52553
55193	3.3009
55194	3.3742
55195	4.5477
55196	3.873
55197	0.68541
55198	0.68366
55199	0.69575
55200	0.71435
55201	4.393
55202	4.1402
55203	3.4471
55204	3.619
55205	4.1524
55206	4.1427
55207	4.2904
55208	3.9352
55209	4.5263
55210	4.2821
55211	2.5666
55212	3.025
55213	1.1307
55214	1.2869
55215	1.2923
55216	1.2018
55217	0.83753
55218	0.7517
55219	0.84442
55220	0.89532
55221	0.86555
55222	0.95758
55223	0.72664
55224	0.85916
55225	1.5216
55226	1.5633
55227	1.7017
55228	1.7797
55229	3.0803
55230	3.013
55231	2.6016
55232	2.6489
55233	3.1372
55234	2.9915
55235	3.4972
55236	3.1961
55237	2.8332
55238	2.039
55239	0.551
55240	0.77888
55241	1.7934
55242	2.0489
55243	1.6321
55244	1.6384
55245	2.4283
55246	2.3152
55247	2.3328
55248	2.0284
55249	2.4785
55250	2.3722
55251	2.2909
55252	2.6722
55253	2.2543
55254	2.0587
55255	1.8676
55256	1.7772
55257	1.7618
55258	1.5806
55259	2.2192
55260	2.5203
55261	1.1178
55262	1.6047
55263	9.3662
55264	9.3625
55265	9.2454
55266	4.5865
55267	4.587
55268	5.2926
55269	5.092
55270	4.7474
55271	4.747
55272	1.5356
55273	1.2248
55274	1.1289
55275	1.3242
55276	1.704
55277	1.4469
55278	1.2128
55279	1.0528
55280	1.3824
55281	1.5763
55282	0.78828
55283	0.64921
55284	0.36467
55285	0.49436
55286	0.68174
55287	0.58494
55288	0.74273
55289	0.61965
55290	1.5879
55291	1.5237
55292	0.49786
55293	0.5027
55294	0.62616
55295	0.65469
55296	1.1755
55297	1.1994
55298	1.0534
55299	1.2086
55300	1.0003
55301	1.0774
55302	1.1764
55303	7.2791
55304	6.0239
55305	7.3169
55306	6.2257
55307	9.9268
55308	7.9453
55309	1.3217
55310	1.4414
55311	1.2064
55312	1.4882
55313	2.9321
55314	2.2664
55315	0.93404
55316	0.88612
55317	0.15705
55318	0.25396
55319	0.27255
55320	0.28282
55321	14.516
55322	14.515
55323	13.225
55324	13.226
55325	6.0014
55326	6.5349
55327	4.3979
55328	4.3989
55329	4.8292
55330	4.8203
55331	3.0791
55332	3.7801
55333	0.22766
55334	0.21712
55335	0.17976
55336	0.1866
55337	0.36509
55338	0.41535
55339	0.34029
55340	0.40021
55341	0.69125
55342	0.69585
55343	0.73062
55344	0.63963
55345	0.72103
55346	0.74654
55347	2.3793
55348	2.3289
55349	3.1664
55350	3.464
55351	0.88431
55352	0.82128
55353	0.53157
55354	0.72395
55355	0.70585
55356	0.65804
55357	0.69729
55358	0.673
55359	0.57374
55360	0.73878
55361	0.721
55362	4.2642
55363	3.9514
55364	9.9434
55365	11.921
55366	6.6175
55367	6.2867
55368	12.204
55369	10.345
55370	3.1722
55371	3.687
55372	3.583
55373	3.6202
55374	0.75931
55375	0.82844
55376	1.0308
55377	1.1154
55378	1.5665
55379	1.561
55380	1.4982
55381	1.5695
55382	0.29588
55383	0.35628
55384	0.78483
55385	1.012
55386	5.1353
55387	5.3178
55388	4.6697
55389	4.9714
55390	0.45124
55391	0.47533
55392	0.34695
55393	0.39122
55394	0.54422
55395	0.58314
55396	1.4235
55397	1.193
55398	1.144
55399	1.1432
55400	1.0871
55401	1.0776
55402	1.7759
55403	1.4762
55404	1.5878
55405	1.6392
55406	0.64836
55407	0.74538
55408	0.73117
55409	0.63966
55410	0.70608
55411	0.76302
55412	0.12355
55413	0.14296
55414	3.7113
55415	4.3211
55416	3.3908
55417	4.0289
55418	4.1505
55419	4.1078
55420	0.61826
55421	0.61556
55422	12.117
55423	12.118
55424	3.4253
55425	3.2343
55426	3.4771
55427	2.854
55428	0.29053
55429	0.25124
55430	0.57049
55431	0.51312
55432	0.64546
55433	0.69255
55434	0.33842
55435	0.27776
55436	0.30381
55437	0.33947
55438	0.26692
55439	0.21192
55440	0.42704
55441	0.35553
55442	0.54753
55443	0.50035
55444	0.81266
55445	0.53897
55446	4.8651
55447	5.4011
55448	5.2295
55449	5.3752
55450	4.7366
55451	4.7912
55452	3.1231
55453	1.5947
55454	2.1
55455	0.92793
55456	0.52062
55457	1.1643
55458	1.3821
55459	2.564
55460	1.9003
55461	2.4811
55462	2.5337
55463	1.6154
55464	1.5872
55465	1.3038
55466	1.0768
55467	1.073
55468	1.3815
55469	2.4099
55470	2.8406
55471	1.2003
55472	1.2101
55473	0.97625
55474	0.94865
55475	0.74964
55476	0.76172
55477	0.60376
55478	0.53447
55479	0.65877
55480	0.54857
55481	2.4458
55482	2.2132
55483	2.3983
55484	2.2154
55485	2.531
55486	2.3592
55487	1.6341
55488	1.6926
55489	1.514
55490	1.5224
55491	1.0209
55492	0.9608
55493	1.2887
55494	1.5558
55495	1.0407
55496	0.89706
55497	0.80959
55498	0.78137
55499	1.7523
55500	1.9173
55501	1.6748
55502	2.0807
55503	2.0269
55504	1.6191
55505	1.8874
55506	2.6891
55507	2.3532
55508	1.8958
55509	0.905
55510	0.87518
55511	0.25539
55512	0.27692
55513	1.26
55514	1.4923
55515	1.5173
55516	1.6437
55517	3.6452
55518	3.6024
55519	3.694
55520	0.87772
55521	0.83594
55522	1.0125
55523	0.9453
55524	1.5066
55525	1.1251
55526	1.4241
55527	1.1125
55528	1.271
55529	0.62494
55530	0.78034
55531	0.6699
55532	0.81974
55533	0.96986
55534	0.95133
55535	0.3898
55536	0.33166
55537	2.714
55538	2.764
55539	3.7502
55540	4.0393
55541	5.2372
55542	5.097
55543	4.9291
55544	4.9284
55545	4.7734
55546	4.7751
55547	2.2254
55548	1.8885
55549	5.7506
55550	5.5333
55551	8.6645
55552	8.2166
55553	1.0253
55554	1.0624
55555	1.1738
55556	1.2209
55557	1.141
55558	1.1391
55559	1.2031
55560	1.1806
55561	3.5764
55562	3.5063
55563	2.8012
55564	2.6286
55565	2.568
55566	2.7283
55567	0.69624
55568	0.74489
55569	0.16082
55570	0.11133
55571	7.2992
55572	7.3003
55573	6.7777
55574	6.8322
55575	1.2422
55576	1.3761
55577	1.2794
55578	2.5587
55579	2.1208
55580	2.134
55581	2.0612
55582	0.15166
55583	0.13599
55584	0.40295
55585	0.42878
55586	0.22874
55587	0.11965
55588	0.74201
55589	0.77405
55590	0.68995
55591	0.69648
55592	0.7413
55593	0.7382
55594	0.79419
55595	0.84128
55596	5.4254
55597	5.7058
55598	2.8533
55599	3.0438
55600	2.8805
55601	2.8125
55602	1.2794
55603	1.1102
55604	1.0646
55605	1.1776
55606	10.02
55607	10.02
55608	2.0028
55609	3.0368
55610	2.887
55611	3.0074
55612	3.156
55613	2.9407
55614	2.8298
55615	2.7671
55616	2.9879
55617	1.1383
55618	1.1092
55619	1.0282
55620	1.054
55621	1.6235
55622	1.7185
55623	1.4855
55624	1.7362
55625	0.41856
55626	0.39691
55627	0.47639
55628	0.4612
55629	0.84576
55630	0.76322
55631	0.7523
55632	1.2176
55633	1.3109
55634	0.82292
55635	0.98828
55636	0.82296
55637	0.97528
55638	1.1617
55639	1.1427
55640	1.0747
55641	0.97465
55642	2.3827
55643	1.9127
55644	1.8398
55645	1.9171
55646	0.77066
55647	0.83271
55648	11.776
55649	11.847
55650	12.054
55651	12.055
55652	12.072
55653	12.017
55654	12.073
55655	14.512
55656	14.513
55657	11.825
55658	11.66
55659	11.66
55660	4.8371
55661	4.2904
55662	0.82998
55663	0.82396
55664	1.244
55665	1.3889
55666	8.6362
55667	8.5695
55668	1.0259
55669	0.97707
55670	0.99601
55671	0.89758
55672	0.61609
55673	0.63107
55674	0.6734
55675	6.4585
55676	6.4585
55677	7.3811
55678	7.7449
55679	7.7429
55680	7.3784
55681	2.043
55682	1.6131
55683	2.7286
55684	2.6973
55685	1.2554
55686	1.3012
55687	1.4584
55688	0.99603
55689	5.2765
55690	5.5854
55691	1.7156
55692	1.5113
55693	3.2242
55694	4.4387
55695	4.4384
55696	4.1776
55697	4.487
55698	4.6984
55699	4.9389
55700	4.0104
55701	4.3918
55702	3.4754
55703	3.3875
55704	13.333
55705	13.027
55706	12.732
55707	12.726
55708	10.265
55709	10.265
55710	11.821
55711	11.865
55712	11.758
55713	11.757
55714	11.66
55715	11.66
55716	2.5695
55717	2.4017
55718	2.3671
55719	2.2787
55720	3.9831
55721	3.9032
55722	0.29399
55723	0.34283
55724	0.38081
55725	0.44391
55726	1.5147
55727	1.4548
55728	1.8149
55729	1.8198
55730	1.7594
55731	1.6836
55732	2.2196
55733	2.2779
55734	1.9439
55735	1.8655
55736	4.3464
55737	4.1374
55738	4.7451
55739	4.7452
55740	2.6653
55741	2.4869
55742	0.55021
55743	0.63502
55744	3.0894e-002
55745	0.12221
55746	3.1035
55747	2.5032
55748	2.1916
55749	2.1245
55750	2.1304
55751	2.2158
55752	0.72857
55753	0.69932
55754	0.63309
55755	0.66831
55756	0.80743
55757	0.75267
55758	2.0439
55759	2.2204
55760	2.2232
55761	2.0269
55762	2.1825
55763	1.914
55764	11.757
55765	11.757
55766	0.1709
55767	0.15191
55768	0.34606
55769	0.29931
55770	0.14984
55771	7.3699e-002
55772	0.41597
55773	0.49196
55774	0.80419
55775	0.82325
55776	0.89594
55777	0.855
55778	6.132
55779	5.68
55780	5.1681
55781	5.0598
55782	12.838
55783	12.838
55784	13.795
55785	13.796
55786	1.0439
55787	1.1545
55788	1.2112
55789	1.2318
55790	0.91132
55791	1.1346
55792	1.2354
55793	0.90525
55794	1.4671
55795	1.2686
55796	1.2009
55797	0.79661
55798	2.6125
55799	2.51
55800	4.9278
55801	5.1199
55802	6.8774
55803	6.9983
55804	6.8189
55805	6.9418
55806	6.6183
55807	6.6241
55808	0.4722
55809	0.51533
55810	0.68758
55811	0.75016
55812	13.158
55813	12.742
55814	2.2821
55815	2.5116
55816	5.7317
55817	5.675
55818	5.9108
55819	6.4109
55820	4.8272
55821	4.4557
55822	16.018
55823	15.313
55824	14.385
55825	14.39
55826	1.0245
55827	0.98798
55828	0.90604
55829	0.70315
55830	3.8145
55831	3.3167
55832	3.6517
55833	3.6524
55834	5.5785
55835	5.9399
55836	4.1657
55837	4.3475
55838	5.2211
55839	5.3182
55840	0.2961
55841	0.34472
55842	0.6571
55843	0.68311
55844	0.56501
55845	0.55784
55846	0.64094
55847	0.71468
55848	1.1888
55849	0.9867
55850	1.4228
55851	1.4393
55852	2.3524
55853	2.92
55854	2.8821
55855	1.7958
55856	1.4807
55857	2.7631
55858	2.5665
55859	1.8065
55860	1.9134
55861	3.2377
55862	2.3739
55863	5.971
55864	5.9805
55865	5.0514
55866	5.0682
55867	4.4978
55868	4.173
55869	2.8029
55870	2.3499
55871	2.0449
55872	1.9167
55873	2.1365
55874	2.5267
55875	1.5073
55876	1.3097
55877	2.3792
55878	2.8722
55879	3.051
55880	2.6332
55881	2.8481
55882	2.6243
55883	2.5208
55884	4.0008
55885	4.3984
55886	11.672
55887	11.583
55888	13.261
55889	7.2896
55890	6.9041
55891	3.4392
55892	3.516
55893	4.5685
55894	4.5679
55895	6.2204
55896	6.409
55897	5.3403
55898	5.4153
55899	5.8056
55900	5.952
55901	1.5902
55902	1.6395
55903	1.555
55904	1.8203
55905	2.3953
55906	3.9109
55907	3.5759
55908	0.78952
55909	0.75313
55910	0.90236
55911	0.8511
55912	1.9941
55913	2.1356
55914	1.5808
55915	1.6711
55916	0.57836
55917	0.50028
55918	4.6315
55919	3.8653
55920	0.92725
55921	1.2057
55922	2.9161
55923	2.3984
55924	1.0509
55925	1.6141
55926	2.9395
55927	2.5313
55928	4.0309
55929	3.783
55930	4.2125
55931	4.1428
55932	11.272
55933	11.272
55934	11.907
55935	11.906
55936	0.71241
55937	0.73945
55938	0.51069
55939	0.52588
55940	0.66778
55941	0.61908
55942	0.71426
55943	0.67297
55944	0.65096
55945	0.66286
55946	0.88506
55947	0.99079
55948	2.5783
55949	2.9559
55950	2.6271
55951	1.9905
55952	1.8295
55953	1.6381
55954	9.8274
55955	8.3712
55956	9.9061
55957	9.3216
55958	1.3344
55959	1.4304
55960	1.5365
55961	1.513
55962	0.7474
55963	0.77465
55964	0.66445
55965	0.6791
55966	12.387
55967	12.385
55968	13.051
55969	12.645
55970	12.648
55971	13.056
55972	13.233
55973	5.2169
55974	5.4345
55975	4.2705
55976	4.1584
55977	3.8237
55978	4.0399
55979	4.039
55980	3.8236
55981	5.0772
55982	4.8641
55983	0.16278
55984	0.1367
55985	2.4742
55986	2.6373
55987	13.189
55988	13.606
55989	3.7851
55990	3.1484
55991	13.239
55992	13.478
55993	1.9512
55994	2.3272
55995	2.8761
55996	3.0682
55997	0.31896
55998	0.30695
55999	7.1988
56000	7.2486
56001	2.3547
56002	2.1752
56003	1.9827
56004	2.0357
56005	2.017
56006	2.0949
56007	1.5003
56008	1.632
56009	6.3309
56010	6.1881
56011	7.0726
56012	7.2363
56013	6.3071
56014	5.513
56015	7.9936
56016	5.8498
56017	5.2327
56018	5.71
56019	5.5433
56020	5.6096
56021	3.643
56022	3.5423
56023	0.71727
56024	0.76951
56025	0.97747
56026	0.97447
56027	0.97308
56028	1.0048
56029	1.0365
56030	1.083
56031	2.8912
56032	3.3147
56033	3.0684
56034	0.85683
56035	0.69065
56036	0.29886
56037	0.37945
56038	1.8744
56039	2.0454
56040	4.2775
56041	3.8351
56042	4.6739
56043	4.8097
56044	4.8699
56045	5.1491
56046	3.1224
56047	3.0926
56048	0.14374
56049	0.22564
56050	0.20129
56051	0.26148
56052	3.6937
56053	3.7174
56054	6.4243
56055	5.8914
56056	3.0046
56057	2.9854
56058	2.3467
56059	2.3468
56060	3.4884
56061	3.5038
56062	1.1404
56063	1.0067
56064	1.6702
56065	1.998
56066	2.0848
56067	2.4552
56068	5.1577
56069	4.3353
56070	0.59024
56071	1.0434
56072	1.9405
56073	2.617
56074	3.1947
56075	0.81166
56076	0.76776
56077	0.73485
56078	0.8204
56079	3.0538
56080	1.7675
56081	8.7381
56082	5.4763
56083	12.422
56084	8.0307
56085	2.3898
56086	1.9527
56087	0.49032
56088	0.45717
56089	0.36833
56090	0.40826
56091	0.70645
56092	0.77926
56093	9.5323
56094	9.5332
56095	11.895
56096	11.834
56097	0.79681
56098	0.70728
56099	0.98997
56100	0.9826
56101	4.2771
56102	3.8191
56103	5.1401
56104	4.9107
56105	4.6739
56106	4.8067
56107	1.1775
56108	0.80498
56109	0.8134
56110	1.1787
56111	1.0145
56112	5.5417
56113	5.5815
56114	5.4244
56115	6.2144
56116	4.5169
56117	5.0089
56118	0.82444
56119	0.7722
56120	5.6777
56121	5.7444
56122	5.9467
56123	5.6126
56124	6.6003
56125	7.5369
56126	6.565
56127	5.6179
56128	4.456
56129	5.0157
56130	2.9725
56131	3.1552
56132	2.1457
56133	2.4731
56134	2.1918
56135	1.8143
56136	1.6224
56137	1.699
56138	1.5489
56139	1.4337
56140	1.856
56141	2.564
56142	9.0625
56143	8.7012
56144	9.6235
56145	9.2883
56146	9.2903
56147	9.6235
56148	9.8017
56149	9.6966
56150	4.2979
56151	4.4755
56152	5.9154
56153	5.9158
56154	7.6519
56155	7.9037
56156	5.0213
56157	4.5244
56158	5.6185
56159	5.3094
56160	7.3419
56161	7.3062
56162	1.2682
56163	1.3837
56164	9.8224
56165	10.702
56166	9.5881
56167	8.4445
56168	16.469
56169	16.069
56170	16.061
56171	16.469
56172	15.258
56173	13.948
56174	11.175
56175	10.714
56176	4.9715
56177	4.8389
56178	5.3542
56179	5.7861
56180	3.7236
56181	3.1758
56182	5.485
56183	5.3064
56184	3.5073
56185	3.1007
56186	2.5199
56187	2.6225
56188	3.3042
56189	4.1437
56190	0.30354
56191	0.3075
56192	8.1829
56193	6.5123
56194	4.0032
56195	4.0999
56196	0.81348
56197	0.88326
56198	3.8594
56199	4.39
56200	3.7596
56201	3.5741
56202	1.9049
56203	1.6148
56204	1.9796
56205	2.2238
56206	1.1054
56207	0.7712
56208	1.3983
56209	1.0291
56210	3.5778
56211	3.512
56212	3.4106
56213	3.7047
56214	1.6182
56215	2.1922
56216	2.2642
56217	1.3528
56218	8.8585
56219	9.433
56220	3.5714
56221	3.4059
56222	0.82919
56223	0.61703
56224	0.47784
56225	0.43137
56226	1.6641
56227	1.434
56228	0.95967
56229	1.024
56230	1.9238
56231	1.923
56232	2.1974
56233	2.2996
56234	12.561
56235	12.733
56236	4.3276
56237	5.0194
56238	2.2714
56239	2.0805
56240	1.3771
56241	1.5646
56242	1.8441
56243	1.8585
56244	1.7255
56245	1.8599
56246	3.1384
56247	2.3182
56248	1.6621
56249	1.5823
56250	1.5394
56251	1.3396
56252	0.32289
56253	0.34373
56254	0.36073
56255	0.41851
56256	0.59724
56257	0.64731
56258	11.826
56259	11.791
56260	12.398
56261	12.234
56262	14.279
56263	13.881
56264	12.798
56265	12.278
56266	4.0574
56267	4.8675
56268	5.7748
56269	5.7938
56270	6.0857
56271	6.3685
56272	6.1326
56273	5.3057
56274	5.3555
56275	6.1584
56276	4.9308
56277	4.3281
56278	0.34757
56279	0.37321
56280	10.437
56281	9.81
56282	4.0263
56283	4.004
56284	12.547
56285	12.547
56286	0.8112
56287	0.81818
56288	7.9468
56289	8.443
56290	8.8951
56291	8.951
56292	9.4739
56293	9.8753
56294	1.7306
56295	1.6251
56296	1.2147
56297	1.1335
56298	0.97576
56299	1.0476
56300	1.0229
56301	0.96383
56302	0.9272
56303	0.78281
56304	3.3798
56305	3.4752
56306	1.1557
56307	1.1794
56308	0.91824
56309	0.9385
56310	1.0017
56311	0.96207
56312	1.1602
56313	1.1124
56314	0.95163
56315	0.95989
56316	1.2953
56317	1.0942
56318	0.30352
56319	0.34249
56320	0.4647
56321	0.42717
56322	11.64
56323	11.886
56324	9.8267
56325	11.719
56326	11.988
56327	11.683
56328	3.635
56329	3.7413
56330	2.0422
56331	1.7203
56332	4.6935
56333	3.6141
56334	2.1019
56335	2.6545
56336	6.6056
56337	6.674
56338	1.0645
56339	0.95416
56340	11.468
56341	11.238
56342	12.025
56343	12.293
56344	10.321
56345	9.4812
56346	8.4716
56347	11.062
56348	11.053
56349	7.8894
56350	4.7698
56351	4.8947
56352	2.111
56353	2.1317
56354	2.1021
56355	2.1373
56356	4.8031
56357	4.5805
56358	5.1013
56359	5.1007
56360	2.9849
56361	2.564
56362	1.123
56363	1.7665
56364	6.0928
56365	6.6693
56366	7.078
56367	7.0467
56368	14.986
56369	14.987
56370	2.9075
56371	2.9753
56372	2.9559
56373	2.9091
56374	1.8943
56375	1.5686
56376	15.675
56377	14.178
56378	0.42256
56379	0.5483
56380	0.30576
56381	0.30999
56382	7.7453
56383	7.247
56384	3.1518
56385	3.4771
56386	1.604
56387	1.5442
56388	16.723
56389	17.332
56390	3.3956
56391	3.4267
56392	6.2101
56393	6.1744
56394	0.31685
56395	0.30022
56396	0.61527
56397	0.57097
56398	2.223
56399	2.1586
56400	3.4518
56401	3.4002
56402	0.9572
56403	0.96407
56404	4.216
56405	4.4692
56406	1.1461
56407	1.0013
56408	3.4621
56409	3.4756
56410	3.2537
56411	0.68451
56412	0.73416
56413	0.74024
56414	0.72695
56415	4.3956
56416	4.7189
56417	7.9743
56418	8.5407
56419	3.1048
56420	2.7191
56421	1.3109
56422	1.0919
56423	13.707
56424	13.421
56425	12.904
56426	13.167
56427	7.7229
56428	7.5905
56429	0.40314
56430	0.50559
56431	0.32982
56432	0.29282
56433	11.469
56434	11.207
56435	9.8293
56436	10.134
56437	10.515
56438	10.446
56439	0.93263
56440	1.0514
56441	5.7504
56442	5.7109
56443	5.5888
56444	5.5662
56445	6.3838
56446	5.9671
56447	5.3134
56448	5.3145
56449	15.096
56450	13.875
56451	13.06
56452	12.639
56453	8.6782e-002
56454	7.1103e-002
56455	8.9844e-002
56456	9.4573e-002
56457	3.3057
56458	3.645
56459	2.3076
56460	2.5467
56461	3.5095
56462	3.3455
56463	3.6806
56464	4.2086
56465	2.26
56466	2.8594
56467	5.8837
56468	5.8804
56469	4.8093
56470	4.6808
56471	1.7913
56472	1.6055
56473	0.32382
56474	0.19947
56475	2.1532
56476	1.9769
56477	6.7162
56478	6.5793
56479	5.9029
56480	5.7499
56481	5.5343
56482	5.5197
56483	4.6971
56484	4.5853
56485	3.395
56486	4.1526
56487	2.5417
56488	2.481
56489	0.20735
56490	0.19132
56491	0.20471
56492	2.7906
56493	3.0932
56494	11.205
56495	11.034
56496	12.999
56497	14.557
56498	5.4325
56499	5.2175
56500	10.831
56501	9.784
56502	0.6614
56503	0.66015
56504	1.0307
56505	1.0137
56506	7.2063
56507	8.3248
56508	8.4097
56509	2.485
56510	2.5913
56511	1.0427
56512	0.9859
56513	10.578
56514	10.774
56515	3.6937
56516	3.2987
56517	1.2923
56518	1.35
56519	1.8512
56520	1.7014
56521	5.1938
56522	5.359
56523	4.4186
56524	4.4397
56525	6.6963
56526	6.8645
56527	2.2329
56528	2.6823
56529	0.80317
56530	0.71741
56531	1.933
56532	1.969
56533	2.4344
56534	2.4011
56535	2.8834
56536	2.7863
56537	9.0731
56538	8.9564
56539	6.2175
56540	6.4197
56541	6.4401
56542	3.0893
56543	3.2124
56544	2.1458
56545	1.8723
56546	2.2212
56547	1.8051
56548	3.127
56549	3.1329
56550	1.9251
56551	2.2111
56552	13.263
56553	13.13
56554	2.8727
56555	2.8933
56556	17.193
56557	17.997
56558	3.5269
56559	5.9714
56560	5.7034
56561	6.4213
56562	6.1029
56563	13.228
56564	13.095
56565	7.2281
56566	7.6365
56567	6.224
56568	5.7239
56569	3.4908
56570	3.663
56571	0.55478
56572	0.41199
56573	1.9448
56574	1.7666
56575	1.8097
56576	2.0604
56577	0.84551
56578	1.6526
56579	2.0657
56580	1.0442
56581	1.1961
56582	1.1267
56583	0.99963
56584	4.6594
56585	0.93675
56586	6.3228
56587	4.7398
56588	2.3602
56589	7.0726
56590	2.0823
56591	3.3123
56592	7.0429
56593	6.5522
56594	12.676
56595	0.91328
56596	1.0458
56597	6.4971
56598	1.1686
56599	0.66739
56600	0.74353
56601	2.1968
56602	1.6025
56603	9.5042
56604	3.8001
56605	5.6914
56606	6.507
56607	2.6094
56608	5.7546
56609	4.763
56610	3.603
56611	1.0422
56612	2.7873
56613	2.6323
56614	0.7348
56615	5.4015
56616	4.3033
56617	4.5917
56618	6.9997
56619	2.1266
56620	0.36545
56621	1.3556
56622	3.3379
56623	10.288
56624	1.1337
56625	1.0545
56626	1.8621
56627	3.4164
56628	2.7001
56629	5.8437
56630	3.0999
56631	5.4687
56632	0.4181
56633	0.68584
56634	2.9669
56635	0.88712
56636	1.3922
56637	0.67793
56638	0.41916
56639	5.7142
56640	4.2183
56641	11.302
56642	6.2109
56643	6.1047
56644	6.3733
56645	6.2938
56646	3.3223
56647	2.9865
56648	3.2621
56649	1.2733
56650	1.0786
56651	1.2994
56652	1.1729
56653	6.3523
56654	6.1816
56655	1.7186
56656	1.8862
56657	1.9129
56658	1.6217
56659	6.3915
56660	6.3774
56661	6.5065
56662	6.5328
56663	2.7592
56664	2.8391
56665	2.1557
56666	4.3543
56667	5.2395
56668	5.3665
56669	4.5241
56670	5.342
56671	2.0376
56672	2.5934
56673	3.714
56674	4.4609
56675	4.5336
56676	4.3525
56677	4.0331
56678	4.4284
56679	4.0161
56680	4.4861
56681	4.5419
56682	4.3251
56683	3.2216
56684	2.3608
56685	1.6635
56686	3.3753
56687	2.438
56688	1.7391
56689	1.8921
56690	2.7775
56691	4.4136
56692	3.7187
56693	0.52743
56694	3.8313
56695	4.9488
56696	4.8931
56697	5.1199
56698	3.9053
56699	2.4061
56700	3.9538
56701	3.1172
56702	6.0418
56703	5.9909
56704	5.4781
56705	6.1185
56706	5.6385
56707	6.3351
56708	4.3966
56709	5.3071
56710	4.8831
56711	4.0188
56712	4.9462
56713	4.1735
56714	3.8483
56715	4.0015
56716	3.2429
56717	2.5157
56718	3.2004
56719	4.2941e-002
56720	4.4405e-002
56721	8.2079e-002
56722	5.5572
56723	5.3385
56724	5.9315
56725	5.5934
56726	5.2178
56727	4.8731
56728	9.2278e-002
56729	6.8479e-002
56730	2.4371
56731	2.8875
56732	4.0787
56733	3.9786
56734	5.2814
56735	1.7189
56736	1.9573
56737	4.0398
56738	4.0173
56739	1.8069
56740	1.7067
56741	0.85745
56742	0.86053
56743	4.302
56744	3.3245
56745	3.9236
56746	2.9957
56747	3.6504
56748	3.3693
56749	6.5189
56750	6.9921
56751	6.3828
56752	6.3149
56753	7.5186
56754	5.9864
56755	4.3988
56756	3.4341
56757	4.4851
56758	4.1349
56759	3.7419
56760	3.9651
56761	2.9234
56762	3.9713
56763	6.896
56764	6.837
56765	6.906
56766	6.9041
56767	5.416
56768	5.0775
56769	5.3057
56770	4.9939
56771	6.9488
56772	6.9006
56773	7.0186
56774	7.0013
56775	6.4101
56776	6.2306
56777	6.6021
56778	6.4433
56779	6.6851
56780	6.311
56781	6.9606
56782	6.2269
56783	4.9948
56784	4.2979
56785	5.0901
56786	4.3389
